 vasp.5.4.4.18Apr17-6-g9f103f2a35 (build Jan 21 2021 13:12:21) complex

 executed on             LinuxIFC date 2022.01.08  23:30:20

 INCAR:
 POTCAR:   PAW_PBE Ni 06Sep2000
 POTCAR:    PAW_PBE Nb_sv 25May2007
 POTCAR:    PAW_PBE W 08Apr2002
 POTCAR:   PAW_PBE Ni 06Sep2000
   VRHFIN =Ni:

   TITEL  = PAW_PBE Ni 06Sep2000
   POMASS =   58.690; ZVAL   =   10.000    mass and valenz
   ENMAX  =  269.533; ENMIN  =  202.150 eV
   QCUT   =   -4.451; QGAM   =    8.902    optimization parameters

   Description
     l     E      TYP  RCUT    TYP  RCUT
     2   .000     23  2.300
     2   .000     23  2.300
     0   .000     23  2.300
     0   .000     23  2.300
     1  -.200     23  2.300
     1   .000     23  2.300
     3   .000      7   .000

 POTCAR:    PAW_PBE Nb_sv 25May2007
   VRHFIN =Nb: 4p5s4d

   TITEL  = PAW_PBE Nb_sv 25May2007
   POMASS =   92.910; ZVAL   =   13.000    mass and valenz
   ENMAX  =  293.235; ENMIN  =  219.927 eV

 POTCAR:    PAW_PBE W 08Apr2002
   VRHFIN =W : 6s5d

   TITEL  = PAW_PBE W 08Apr2002
   POMASS =  183.850; ZVAL   =    6.000    mass and valenz
   ENMAX  =  223.057; ENMIN  =  167.293 eV

 Optimization of the real space projectors (new method)

 maximal supplied QI-value         = 16.25
 optimisation between [QCUT,QGAM] = [ 12.51, 25.03] = [ 43.85,175.40] Ry
 Optimized for a Real-space Cutoff    1.31 Angstroem

   l    n(q)    QCUT    max X(q) W(low)/X(q) W(high)/X(q)  e(spline)
   2      9    12.514     4.811    0.56E-04    0.27E-04    0.54E-07
   2      9    12.514    15.146    0.50E-03    0.83E-03    0.65E-06
   0     10    12.514    14.357    0.12E-04    0.16E-04    0.90E-08
   0     10    12.514    43.282    0.85E-04    0.27E-03    0.25E-06
   1      9    12.514     5.514    0.64E-04    0.11E-04    0.56E-07
   1      9    12.514     7.697    0.40E-03    0.73E-04    0.27E-06
 Optimization of the real space projectors (new method)

[...]

   l    n(q)    QCUT    max X(q) W(low)/X(q) W(high)/X(q)  e(spline)
   0     12    12.548    10.201    0.21E-04    0.36E-05    0.83E-07
   0     12    12.548     8.174    0.31E-04    0.62E-05    0.15E-06
   1     11    12.548     3.488    0.79E-05    0.23E-04    0.21E-06
   1     11    12.548     4.917    0.56E-04    0.13E-03    0.11E-05
   2     11    12.548   153.744    0.25E-03    0.10E-03    0.15E-05
   2     11    12.548   126.342    0.25E-03    0.10E-03    0.15E-05
 Optimization of the real space projectors (new method)

 maximal supplied QI-value         = 13.61
 optimisation between [QCUT,QGAM] = [ 12.52, 25.04] = [ 43.88,175.51] Ry
 Optimized for a Real-space Cutoff    1.56 Angstroem

   l    n(q)    QCUT    max X(q) W(low)/X(q) W(high)/X(q)  e(spline)
   2     11    12.518   130.855    0.35E-03    0.25E-03    0.12E-05
   2     11    12.518   114.007    0.35E-03    0.25E-03    0.12E-05
   0     12    12.518    84.709    0.29E-04    0.97E-05    0.60E-06
   0     12    12.518    49.163    0.27E-04    0.89E-05    0.55E-06
   1     11    12.518    15.765    0.74E-04    0.89E-04    0.15E-06
   1     11    12.518    10.638    0.55E-04    0.69E-04    0.13E-06
 PAW_PBE Ni 06Sep2000                   :
  PAW_PBE Nb_sv 25May2007               :
  PAW_PBE W 08Apr2002                   :

 POSCAR: Ni Nb  W
  positions in direct lattice
  velocities in cartesian coordinates
 exchange correlation table for  LEXCH =        8
   RHO(1)=    0.500       N(1)  =     2000
   RHO(2)=  100.500       N(2)  =     4000

 ion  position               nearest neighbor table
   1  0.013  0.475  0.241-  31 2.45   6 2.49  44 2.51  35 2.53  67 2.55  16 2.55  10 2.56  68 2.60
                            59 2.68
   2  0.192  0.976  0.246-  63 2.52  13 2.54   3 2.57  64 2.57  24 2.57  65 2.57  56 2.60  14 2.65

   3  0.017  0.028  0.174-   5 2.53  14 2.53  56 2.54  61 2.55   4 2.55  71 2.55  63 2.56   2 2.57
                            49 2.58  38 2.59  13 2.59  21 2.60
   4  0.188  0.194  0.173-  13 2.45  56 2.51  60 2.53  31 2.53  42 2.54  10 2.55   3 2.55  71 2.56
                             8 2.57   7 2.65  49 2.65
   5  0.182  0.976  0.102-  71 2.49  30 2.49  42 2.51  29 2.52   3 2.53  18 2.53  50 2.54  13 2.55
                            47 2.56  21 2.58  63 2.59  48 2.61
   6  0.854  0.311  0.241-   1 2.49  51 2.49  49 2.50  10 2.50  16 2.50  31 2.52  56 2.53  54 2.55
                            39 2.62
   7  0.182  0.309  0.097-  22 2.49  69 2.50  37 2.52  10 2.53  45 2.53  60 2.54  28 2.56  20 2.56
                            42 2.59  71 2.60  12 2.62   4 2.65
   8  0.518  0.195  0.173-  13 2.50  60 2.50  39 2.51  38 2.52  51 2.52  54 2.53  49 2.56  12 2.56
                             4 2.57  42 2.58  34 2.59
   9  0.692  0.704  0.025-  32 2.46  43 2.52  62 2.52  15 2.53  19 2.54  41 2.55  57 2.56  58 2.59
                            36 2.67
  10  0.016  0.359  0.169-  31 2.47   6 2.50  49 2.50   7 2.53  28 2.53   4 2.55   1 2.56  68 2.56
                            51 2.57  35 2.57  22 2.58  60 2.62
  11  0.681  0.808  0.244-  24 2.50  61 2.50  65 2.51  23 2.52  33 2.56  14 2.56  44 2.57  64 2.58
                            17 2.59
  12  0.518  0.300  0.097-  34 2.47  42 2.48  40 2.49  70 2.51  20 2.54  60 2.54   8 2.56  66 2.59
                            51 2.61  28 2.61  45 2.61   7 2.62
  13  0.350  0.033  0.174-  65 2.40   4 2.45   8 2.50  42 2.54   2 2.54   5 2.55  63 2.58   3 2.59
                            48 2.60  38 2.60  33 2.62
  14  0.851  0.975  0.246-  39 2.46  64 2.49   3 2.53  11 2.56  61 2.56  65 2.58  56 2.60  38 2.64
                             2 2.65
  15  0.850  0.640  0.096-  41 2.49  19 2.51  43 2.51   9 2.53  35 2.55  53 2.56  22 2.57  17 2.58
                            66 2.58  18 2.58  27 2.59  58 2.66
  16  0.685  0.473  0.240-  25 2.49  51 2.49   6 2.50  35 2.54  44 2.54  23 2.55  59 2.55   1 2.55
                            54 2.66
  17  0.688  0.695  0.170-  23 2.50  44 2.51  35 2.53  61 2.53  27 2.54  43 2.54  33 2.55  25 2.56
                            15 2.58  11 2.59  26 2.59  58 2.64
  18  0.017  0.810  0.101-  53 2.51  27 2.51  29 2.52  21 2.53  43 2.53   5 2.53  47 2.54  19 2.54
                            32 2.57  15 2.58  61 2.58  63 2.62
  19  0.019  0.702  0.028-  53 2.46  47 2.48  15 2.51  32 2.52  18 2.54   9 2.54  41 2.56  36 2.57
                            55 2.61
  20  0.357  0.358  0.025-  45 2.51  69 2.53  12 2.54  70 2.55   7 2.56  40 2.58  55 2.63  37 2.67
                            57 2.76
  21  0.851  0.975  0.100-  32 2.49  71 2.50  50 2.52  38 2.52  43 2.52  34 2.52  46 2.52  18 2.53
                            61 2.55   5 2.58  48 2.59   3 2.60
  22  0.015  0.471  0.096-   7 2.49  68 2.49  37 2.52  55 2.53  28 2.55  41 2.55  35 2.56  66 2.57
                            15 2.57  10 2.58  53 2.61  45 2.64
  23  0.522  0.642  0.241-  26 2.46  17 2.50  11 2.52  24 2.52  25 2.54  59 2.54  16 2.55  44 2.56
                            67 2.60
  24  0.361  0.808  0.247-  11 2.50  23 2.52  65 2.53  63 2.54   2 2.57  26 2.57  67 2.59  33 2.59
                            64 2.71
  25  0.521  0.527  0.170-  16 2.49  23 2.54  51 2.54  35 2.55  17 2.56  60 2.56  26 2.59  45 2.62
                            59 2.62  66 2.64  58 2.68  68 2.68
  26  0.354  0.697  0.173-  23 2.46  33 2.48  63 2.52  67 2.52  24 2.57  25 2.59  17 2.59  29 2.60
                            58 2.61  68 2.61  27 2.65  53 2.68
  27  0.014  0.693  0.171-  44 2.50  68 2.50  18 2.51  35 2.53  17 2.54  53 2.57  67 2.58  15 2.59
                            63 2.60  61 2.63  26 2.65  64 2.72
  28  0.853  0.302  0.098-  71 2.50  34 2.51  10 2.53  70 2.53  52 2.53  49 2.54  37 2.54  22 2.55
                             7 2.56  66 2.57  51 2.58  12 2.61
  29  0.341  0.810  0.099-  47 2.43  62 2.47  58 2.48  53 2.51   5 2.52  18 2.52  33 2.56  48 2.57
                            26 2.60  36 2.60  63 2.61  43 2.73
  30  0.342  0.025  0.031-  47 2.45   5 2.49  42 2.49  50 2.50  48 2.50  40 2.51  62 2.51  69 2.52
                            46 2.64
  31  0.177  0.316  0.241-   1 2.45  10 2.47   6 2.52  59 2.52   4 2.53  56 2.54  60 2.55  54 2.75

  32  0.849  0.866  0.029-   9 2.46  43 2.46  46 2.48  21 2.49  50 2.49  19 2.52  62 2.56  18 2.57
                            47 2.62
  33  0.516  0.860  0.171-  65 2.45  26 2.48  61 2.52  48 2.53  63 2.55  17 2.55  11 2.56  29 2.56
                            43 2.58  24 2.59  38 2.61  13 2.62
  34  0.684  0.139  0.099-  12 2.47  40 2.49  38 2.50  46 2.51  28 2.51  48 2.52  21 2.52  52 2.54
                            49 2.57  71 2.58   8 2.59  42 2.60
  35  0.849  0.527  0.168-  17 2.53  27 2.53   1 2.53  16 2.54  51 2.55  68 2.55  15 2.55  25 2.55
                            22 2.56  44 2.57  10 2.57  66 2.60
  36  0.348  0.701  0.023-  47 2.49  58 2.52  62 2.56  19 2.57  53 2.60  29 2.60  55 2.64  57 2.65
                             9 2.67
  37  0.015  0.357  0.025-  22 2.52   7 2.52  69 2.53  28 2.54  52 2.54  70 2.57  55 2.58  41 2.66
                            20 2.67
  38  0.685  0.031  0.170-  65 2.44  39 2.46  61 2.50  34 2.50  49 2.51  48 2.51   8 2.52  21 2.52
                             3 2.59  13 2.60  33 2.61  14 2.64
  39  0.691  0.136  0.241-  54 2.44  14 2.46  38 2.46  49 2.46   8 2.51  65 2.51  56 2.57   6 2.62

  40  0.516  0.186  0.028-  46 2.46  34 2.49  12 2.49  30 2.51  42 2.51  70 2.52  69 2.55  20 2.58
                            52 2.65
  41  0.852  0.535  0.024-  15 2.49  57 2.50  55 2.52  66 2.54   9 2.55  22 2.55  19 2.56  37 2.66
                            70 2.76
  42  0.350  0.139  0.100-  12 2.48  30 2.49  40 2.51   5 2.51  69 2.52  48 2.52  13 2.54   4 2.54
                             8 2.58   7 2.59  71 2.60  34 2.60
  43  0.692  0.807  0.098-  62 2.45  32 2.46  15 2.51   9 2.52  21 2.52  58 2.53  18 2.53  17 2.54
                            61 2.54  33 2.58  48 2.59  29 2.73
  44  0.850  0.640  0.241-  27 2.50  17 2.51   1 2.51  16 2.54  23 2.56  35 2.57  11 2.57  64 2.59
                            67 2.63
  45  0.354  0.473  0.095-  20 2.51   7 2.53  55 2.56  68 2.57  66 2.58  58 2.60  60 2.61  12 2.61
                            25 2.62  53 2.63  22 2.64  57 2.97
  46  0.681  0.026  0.029-  62 2.45  40 2.46  32 2.48  34 2.51  48 2.51  52 2.52  21 2.52  30 2.64
                            50 2.64
  47  0.185  0.863  0.030-  29 2.43  30 2.45  19 2.48  50 2.48  36 2.49  18 2.54   5 2.56  62 2.61
                            32 2.62
  48  0.517  0.975  0.100-  62 2.43  30 2.50  46 2.51  38 2.51  34 2.52  42 2.52  33 2.53  29 2.57
                            43 2.59  21 2.59  13 2.60   5 2.61
  49  0.847  0.197  0.172-  39 2.46  51 2.48   6 2.50  10 2.50  38 2.51  28 2.54  71 2.54   8 2.56
                            34 2.57  56 2.57   3 2.58   4 2.65
  50  0.021  0.025  0.029-  47 2.48  52 2.49  32 2.49  30 2.50  21 2.52   5 2.54  71 2.55  69 2.57
                            46 2.64
  51  0.686  0.360  0.171-  49 2.48   6 2.49  16 2.49   8 2.52  25 2.54  35 2.55  10 2.57  60 2.58
                            28 2.58  12 2.61  66 2.64  54 2.68
  52  0.856  0.188  0.027-  50 2.49  70 2.51  46 2.52  28 2.53  34 2.54  37 2.54  71 2.56  69 2.59
                            40 2.65
[...]
  Kinetic  6394.40893  6405.11073  6449.88541   -12.91931     2.57150    -0.46024
  Fock        0.00000     0.00000     0.00000     0.00000     0.00000     0.00000
  Total     -31.44454    -6.49512    -0.28503    -1.73970    -0.03582    -0.04116
  in kB     -17.14253    -3.54092    -0.15539    -0.94843    -0.01953    -0.02244

 VOLUME and BASIS-vectors are now :
  energy-cutoff  :      600.00
  volume of cell :     2938.87
      direct lattice vectors                 reciprocal lattice vectors
     7.778498173  0.000000000  0.000000000     0.128559521  0.000000000  0.000000000
     0.000000000 13.137704849  0.000000000     0.000000000  0.076116796  0.000000000
     0.000000000  0.000000000 28.758470535     0.000000000  0.000000000  0.034772364

  length of vectors
     7.778498173 13.137704849 28.758470535     0.128559521  0.076116796  0.034772364

 FORCES acting on ions
    electron-ion (+dipol)            ewald-force                    non-local-force                 convergence-correction
   -.196E+03 -.140E+03 -.312E+04   0.197E+03 0.140E+03 0.312E+04   -.191E+00 -.497E+00 -.255E+00   0.163E-01 -.270E-01 0.146E-02
   -.114E+03 0.320E+02 -.324E+04   0.115E+03 -.327E+02 0.324E+04   -.400E+00 0.738E+00 -.878E+00   0.922E-02 0.215E-01 -.984E-02
   -.521E+02 0.138E+03 -.121E+04   0.526E+02 -.138E+03 0.121E+04   -.491E+00 -.588E+00 0.320E+00   0.187E-01 -.293E-02 -.526E-01
   -.114E+03 -.255E+02 -.121E+04   0.115E+03 0.253E+02 0.121E+04   -.443E+00 0.222E+00 0.929E-01   0.558E-01 -.117E-01 -.476E-01
   0.322E+02 -.339E+02 0.769E+03   -.318E+02 0.332E+02 -.769E+03   -.411E+00 0.733E+00 0.556E+00   -.134E-02 0.173E-01 -.217E-01
   -.258E+02 -.601E+02 -.320E+04   0.252E+02 0.607E+02 0.320E+04   0.553E+00 -.571E+00 0.126E+00   0.106E-01 -.380E-01 0.187E-01
   -.334E+02 0.700E+02 0.979E+03   0.331E+02 -.699E+02 -.980E+03   0.221E+00 -.102E+00 0.397E+00   0.549E-02 -.602E-01 -.165E-01
   0.162E+03 -.175E+02 -.126E+04   -.162E+03 0.161E+02 0.126E+04   -.966E-02 0.145E+01 0.588E+00   -.448E-01 -.334E-01 -.508E-01
   0.221E+02 -.892E+02 0.318E+04   -.212E+02 0.897E+02 -.318E+04   -.822E+00 -.567E+00 0.166E+00   0.111E-01 0.311E-01 0.207E-01
   -.152E+03 -.963E+02 -.105E+04   0.151E+03 0.963E+02 0.105E+04   0.339E+00 0.204E-01 0.226E+00   0.588E-01 -.310E-01 -.447E-01
   -.741E+02 -.599E+02 -.321E+04   0.741E+02 0.595E+02 0.321E+04   -.251E-01 0.362E+00 -.475E+00   0.400E-02 0.585E-01 -.117E-01
   0.561E+01 -.128E+03 0.100E+04   -.540E+01 0.128E+03 -.100E+04   -.108E+00 0.399E+00 0.269E-01   -.213E-01 -.766E-01 0.210E-02
   0.223E+02 0.221E+02 -.139E+04   -.229E+02 -.209E+02 0.139E+04   0.601E+00 -.120E+01 0.126E+01   0.108E-01 0.345E-01 -.523E-01
   0.125E+02 0.164E+03 -.324E+04   -.131E+02 -.164E+03 0.324E+04   0.633E+00 -.632E+00 -.149E+01   -.102E-01 0.181E-01 -.748E-02
   0.925E+01 0.763E+02 0.941E+03   -.902E+01 -.763E+02 -.940E+03   -.236E+00 -.746E-01 -.132E+00   -.405E-02 0.208E-01 -.181E-01
   0.993E+02 -.584E+02 -.316E+04   -.996E+02 0.581E+02 0.316E+04   0.296E+00 0.370E+00 -.763E-02   -.775E-02 -.198E-01 0.198E-02
   -.476E+02 -.459E+02 -.118E+04   0.476E+02 0.452E+02 0.118E+04   -.266E-02 0.640E+00 0.133E-01   -.849E-03 0.320E-01 -.700E-01
   -.993E+01 -.610E+02 0.701E+03   0.989E+01 0.609E+02 -.701E+03   0.583E-01 0.142E-01 0.495E+00   -.782E-02 0.566E-01 -.139E-01
   0.127E+02 -.495E+02 0.312E+04   -.127E+02 0.500E+02 -.312E+04   -.379E-01 -.527E+00 -.482E+00   -.171E-01 0.306E-01 0.126E-01
   -.455E+02 0.126E+03 0.311E+04   0.459E+02 -.125E+03 -.311E+04   -.311E+00 -.950E+00 0.211E+01   -.233E-01 -.732E-01 -.214E-02
   -.562E+02 -.275E+02 0.863E+03   0.557E+02 0.273E+02 -.864E+03   0.457E+00 0.232E+00 0.844E+00   0.119E-01 0.621E-02 -.199E-01
   0.321E+02 0.409E+02 0.934E+03   -.329E+02 -.411E+02 -.934E+03   0.712E+00 0.218E+00 -.107E+00   -.802E-02 -.269E-01 -.280E-01
   0.135E+03 0.634E+02 -.319E+04   -.135E+03 -.635E+02 0.319E+04   0.102E+00 0.137E+00 -.245E+00   -.100E-02 0.865E-02 -.131E-01
   0.139E+03 -.132E+02 -.326E+04   -.139E+03 0.127E+02 0.326E+04   0.811E+00 0.430E+00 -.589E+00   -.629E-03 0.585E-01 -.781E-02
   0.168E+03 0.106E+03 -.113E+04   -.167E+03 -.105E+03 0.113E+04   -.459E+00 -.599E+00 0.533E-02   -.187E-01 -.118E-01 -.415E-01
   0.170E+03 0.504E+02 -.133E+04   -.169E+03 -.508E+02 0.133E+04   -.635E+00 0.342E+00 0.343E+00   0.369E-02 0.234E-01 -.588E-01
   -.115E+03 -.787E+02 -.131E+04   0.114E+03 0.794E+02 0.131E+04   0.129E+01 -.750E+00 0.721E+00   -.217E-02 0.353E-01 -.583E-01
   0.210E+02 -.298E+02 0.107E+04   -.210E+02 0.300E+02 -.107E+04   -.111E+00 -.165E+00 -.120E+01   0.134E-01 -.426E-01 -.558E-01
   0.125E+02 -.788E+02 0.875E+03   -.138E+02 0.802E+02 -.874E+03   0.135E+01 -.136E+01 -.645E+00   -.445E-02 0.541E-01 -.841E-02
   0.512E+01 -.494E+02 0.309E+04   -.484E+01 0.493E+02 -.309E+04   -.247E+00 0.470E-01 0.742E+00   -.152E-01 0.161E-01 0.307E-01
   -.213E+03 -.444E+02 -.312E+04   0.214E+03 0.444E+02 0.312E+04   -.108E+01 0.509E-03 -.128E+01   0.227E-01 -.410E-01 -.200E-01
   0.307E+02 -.650E+02 0.312E+04   -.310E+02 0.652E+02 -.312E+04   0.322E+00 -.205E+00 -.893E+00   0.727E-02 0.364E-01 0.265E-01
   0.343E+02 -.480E+02 -.123E+04   -.346E+02 0.473E+02 0.122E+04   0.243E+00 0.709E+00 0.152E+01   0.181E-02 0.501E-01 -.447E-01
   -.513E+02 -.407E+02 0.993E+03   0.510E+02 0.403E+02 -.993E+03   0.350E+00 0.521E+00 0.857E-01   -.233E-01 -.108E-01 -.154E-01
   -.576E+02 0.578E+01 -.103E+04   0.575E+02 -.591E+01 0.103E+04   0.122E+00 0.127E+00 -.345E+00   0.770E-02 0.688E-02 -.546E-01
   -.272E+02 -.111E+03 0.322E+04   0.264E+02 0.111E+03 -.322E+04   0.811E+00 -.871E-01 0.162E+01   0.387E-02 0.449E-01 0.554E-02
   0.564E+02 0.137E+03 0.314E+04   -.563E+02 -.138E+03 -.315E+04   -.125E+00 0.792E+00 0.989E+00   0.317E-02 -.466E-01 0.214E-02
   0.212E+02 0.106E+03 -.119E+04   -.213E+02 -.105E+03 0.119E+04   0.169E+00 -.138E+01 0.157E+01   -.301E-01 0.844E-02 -.409E-01
   0.207E+03 0.124E+03 -.321E+04   -.206E+03 -.125E+03 0.321E+04   -.124E+01 0.181E+01 -.160E+01   -.265E-01 -.249E-01 -.123E-01
   0.333E+02 -.624E+02 0.315E+04   -.333E+02 0.623E+02 -.315E+04   0.646E-01 0.156E+00 -.718E+00   -.693E-02 -.163E-01 0.247E-01
   0.548E+02 0.151E+03 0.310E+04   -.548E+02 -.151E+03 -.310E+04   -.886E-01 0.767E+00 0.624E+00   0.202E-01 -.174E-01 0.568E-02
   0.108E+03 -.616E+02 0.951E+03   -.108E+03 0.614E+02 -.950E+03   -.592E+00 0.251E+00 -.449E+00   -.263E-02 -.162E-03 0.894E-02
   0.142E+01 -.754E+02 0.901E+03   -.268E+00 0.757E+02 -.900E+03   -.118E+01 -.301E+00 -.754E+00   0.118E-01 0.340E-01 -.998E-02
   -.143E+03 -.844E+02 -.319E+04   0.144E+03 0.849E+02 0.319E+04   -.447E+00 -.525E+00 -.305E+00   0.915E-02 0.141E-01 0.302E-02
   -.761E+02 0.792E+02 0.911E+03   0.761E+02 -.794E+02 -.912E+03   -.112E+00 0.272E+00 0.540E+00   -.740E-02 -.374E-01 0.186E-01
   0.194E+02 0.190E+01 0.315E+04   -.194E+02 -.129E+01 -.315E+04   -.298E-02 -.608E+00 -.955E+00   0.794E-02 0.161E-01 0.233E-01
   -.456E+02 -.735E+02 0.310E+04   0.458E+02 0.734E+02 -.310E+04   -.227E+00 0.806E-01 -.690E+00   -.956E-02 0.507E-01 0.280E-01
   0.259E+02 0.273E+02 0.917E+03   -.259E+02 -.261E+02 -.916E+03   -.316E-01 -.115E+01 -.117E+01   -.860E-02 0.284E-01 -.857E-03
   -.458E+02 0.264E+02 -.105E+04   0.453E+02 -.260E+02 0.105E+04   0.520E+00 -.357E+00 -.269E+00   -.132E-01 -.455E-01 -.439E-01
   -.296E+02 -.131E+03 0.308E+04   0.295E+02 0.131E+03 -.308E+04   0.556E-01 -.946E-01 0.773E-01   0.591E-02 0.162E-01 0.319E-01
   0.125E+03 -.848E+02 -.103E+04   -.124E+03 0.848E+02 0.103E+04   -.353E+00 -.321E-01 -.883E-01   -.519E-01 -.412E-01 -.437E-01
   -.614E+02 -.437E+02 0.312E+04   0.623E+02 0.428E+02 -.312E+04   -.926E+00 0.926E+00 -.622E+00   0.156E-01 -.131E-01 0.114E-01
   -.700E-02 0.524E+02 0.841E+03   -.901E+00 -.520E+02 -.841E+03   0.919E+00 -.395E+00 0.735E+00   -.172E-01 0.274E-01 0.452E-02
   0.298E+03 0.837E+01 -.426E+04   -.296E+03 -.624E+01 0.425E+04   -.142E+01 -.207E+01 0.597E+01   -.322E-01 -.656E-01 -.264E-01
   -.178E+02 0.898E+02 0.408E+04   0.180E+02 -.899E+02 -.408E+04   -.221E+00 0.620E-01 -.467E+01   -.521E-01 -.395E-01 -.168E-01
   -.248E+03 0.642E+02 -.424E+04   0.246E+03 -.642E+02 0.423E+04   0.217E+01 -.372E-01 0.572E+01   0.217E-01 -.163E-01 -.505E-02
   -.335E+02 0.186E+03 0.438E+04   0.342E+02 -.186E+03 -.438E+04   -.680E+00 0.293E+00 -.650E+01   0.243E-01 -.670E-02 -.182E-01
   -.227E+02 0.152E+03 0.128E+04   0.228E+02 -.152E+03 -.128E+04   -.126E+00 0.144E+00 0.782E+00   0.285E-01 0.428E-01 0.724E-02
   0.621E+02 -.346E+02 -.189E+04   -.620E+02 0.346E+02 0.189E+04   -.475E-01 0.214E-01 0.342E+01   -.530E-02 -.266E-01 -.121E-01
   0.211E+02 -.718E+02 -.688E+03   -.211E+02 0.722E+02 0.689E+03   0.306E-01 -.298E+00 -.933E+00   -.429E-02 -.385E-01 -.175E-01
   -.812E+02 0.205E+02 -.781E+03   0.820E+02 -.207E+02 0.782E+03   -.825E+00 0.218E+00 -.356E+00   -.890E-03 0.206E-01 -.314E-01
   0.128E+02 -.313E+02 0.184E+04   -.125E+02 0.314E+02 -.184E+04   -.273E+00 -.540E-01 -.280E+01   0.131E-02 0.217E-01 0.990E-02
   0.596E+02 0.249E+02 -.841E+03   -.605E+02 -.250E+02 0.841E+03   0.886E+00 0.121E+00 -.360E+00   0.103E-02 0.258E-01 -.319E-01
   -.454E+02 0.404E+02 -.193E+04   0.453E+02 -.403E+02 0.192E+04   0.117E+00 -.904E-01 0.372E+01   -.170E-02 0.268E-01 -.431E-02
   0.621E+02 -.459E+02 -.189E+04   -.611E+02 0.449E+02 0.189E+04   -.947E+00 0.968E+00 0.294E+01   -.278E-03 0.171E-01 -.137E-01
   0.296E+02 0.534E+02 0.662E+03   -.299E+02 -.533E+02 -.663E+03   0.253E+00 -.332E-01 0.101E+01   0.111E-01 -.525E-02 -.992E-02
   0.590E+01 0.769E+01 -.190E+04   -.615E+01 -.777E+01 0.189E+04   0.253E+00 0.650E-01 0.248E+01   -.483E-02 0.477E-02 -.399E-02
   -.702E+02 0.204E+02 -.696E+03   0.704E+02 -.205E+02 0.696E+03   -.159E+00 0.155E+00 -.690E+00   0.543E-02 -.140E-01 -.200E-01
   0.246E+02 0.127E+02 0.185E+04   -.248E+02 -.124E+02 -.185E+04   0.158E+00 -.371E+00 -.345E+01   -.590E-02 -.678E-02 0.119E-01
   -.821E+01 0.107E+01 0.185E+04   0.774E+01 -.843E+00 -.185E+04   0.457E+00 -.145E+00 -.273E+01   0.117E-01 -.306E-01 0.174E-02
   -.368E+02 -.269E+02 0.574E+03   0.370E+02 0.270E+02 -.575E+03   -.283E+00 -.588E-01 0.606E+00   0.153E-01 -.983E-02 -.237E-01
   0.103E+01 0.208E+01 -.345E+01   0.000E+00 -.462E-13 0.114E-12   -.991E+00 -.205E+01 0.431E+01   -.259E-01 0.709E-02 -.919E+00

 POSITION                                       TOTAL-FORCE (eV/Angst)
      0.09948      6.24349      6.91821        -0.000120      0.002055      0.000651
      1.49506     12.82024      7.08279        -0.004118     -0.004274      0.003886
      0.13358      0.36452      5.01565         0.001024     -0.003870     -0.000684
      1.46288      2.54253      4.96646         0.002496     -0.001164     -0.003004
      1.41382     12.82232      2.94549         0.000860     -0.002008      0.001071
      6.64003      4.08833      6.93954         0.000893     -0.000947     -0.000281
      1.41457      4.06383      2.79719        -0.054184     -0.024903     -0.041869
      4.03301      2.56693      4.96554        -0.001204      0.000365     -0.000942
      5.38075      9.24278      0.71169         0.004487     -0.023695      0.008629
      0.12744      4.71081      4.87247         0.000596     -0.005967     -0.001218
      5.30031     10.62047      7.01442        -0.003398     -0.005078     -0.000737
      4.02729      3.93666      2.80194         0.078594     -0.069129      0.001046
      2.72357      0.43729      4.99415        -0.006910     -0.001080     -0.001756
      6.62337     12.81399      7.08059         0.000414      0.000135      0.000887
      6.60979      8.41264      2.76411        -0.010880     -0.001598      0.052444
      5.32503      6.21978      6.91088         0.001632      0.004775     -0.002012
      5.34964      9.12612      4.89651        -0.002363      0.002367      0.004468
      0.13457     10.63518      2.91196         0.002143     -0.003151      0.004623
      0.14422      9.22923      0.79266         0.006456     -0.018954     -0.024261
      2.77871      4.70328      0.72574         0.054314      0.013329      0.077828
      6.61726     12.80419      2.86751         0.000787      0.000602      0.001868
      0.11461      6.18628      2.75108        -0.099788     -0.011900      0.041242
      4.05884      8.43410      6.92819         0.004753     -0.002452      0.001068
      2.80512     10.60944      7.09557        -0.001135     -0.000032      0.000707
      4.05176      6.92210      4.88675         0.002270     -0.000399      0.004771
      2.75665      9.15814      4.97118         0.001735      0.000848      0.004013
      0.11132      9.10961      4.90884        -0.003913      0.005177      0.002935
      6.63818      3.96691      2.81648        -0.057141     -0.005116      0.023048
      2.65531     10.63517      2.83430         0.075532      0.004220      0.045031
      2.66192      0.32919      0.88456         0.023484     -0.019394     -0.071461
      1.37705      4.14743      6.92678         0.003837     -0.002214      0.001857
      6.60150     11.37216      0.82930         0.009724     -0.000716     -0.027115
      4.01335     11.29651      4.90501        -0.000099     -0.002785     -0.001675
      5.32098      1.83034      2.83911         0.055930      0.096038     -0.030995
      6.60456      6.92989      4.83684         0.001896      0.002986     -0.001323
      2.70894      9.20606      0.66071         0.012526      0.001694     -0.025418
      0.11363      4.68562      0.72988        -0.009759     -0.008760     -0.000934
      5.32600      0.41066      4.89591         0.000837     -0.003098      0.001943
      5.37648      1.79132      6.93327        -0.001408     -0.000507     -0.000278
      4.01180      2.43913      0.81050        -0.034860     -0.018441     -0.007146
      6.62988      7.02267      0.69623         0.019002     -0.019632      0.009213
      2.71911      1.83235      2.87435         0.002931      0.003490      0.003484
      5.38517     10.60422      2.82717        -0.019075      0.033782      0.042633
      6.61407      8.40991      6.93706        -0.001272      0.001456      0.002910
      2.75075      6.21700      2.72905        -0.036058      0.118449     -0.074909
      5.29931      0.33988      0.82306         0.001492      0.014148     -0.003777
      1.44012     11.34383      0.85416        -0.009356      0.007437     -0.023733
      4.02411     12.81005      2.87660        -0.000683     -0.003410     -0.000951
      6.58894      2.58275      4.94227         0.001167     -0.000616     -0.001425
      0.16465      0.33401      0.83661         0.017150      0.060058      0.013153
      5.33385      4.72591      4.91305        -0.000681     -0.002462     -0.002000
      6.65773      2.46519      0.77459         0.022050     -0.015672      0.038884
      1.38750      8.46756      2.77258        -0.006387      0.000637      0.054157
      4.10731      3.86517      7.13625         0.004841     -0.004766     -0.003745
      1.37429      6.93127      0.68822        -0.014177      0.009853     -0.009090
      0.16642      1.91921      7.02535         0.000774      0.000568      0.000661
      4.17387      7.03491      0.25378         0.009468     -0.018331      0.012775
      3.95023      8.52327      2.74364         0.029278     -0.023316     -0.001319
      2.77780      6.24027      7.06849        -0.000391     -0.002799      0.000620
      2.75139      4.71540      4.86009         0.004261     -0.003864     -0.001648
      6.53013     11.36410      4.96816         0.001509     -0.002603     -0.000049
      4.04507     11.36964      0.92515        -0.001847      0.010037     -0.056995
      1.47088     11.32057      5.05939        -0.002717     -0.000930      0.003409
      0.10097     10.66238      7.14130         0.001866      0.001995     -0.001034
      4.05509     12.79823      6.83877         0.001406      0.000274      0.005802
      5.32598      6.17665      2.70407        -0.040424     -0.015583      0.025436
      1.46052      8.39636      6.99190         0.002646     -0.006614      0.002883
      1.37133      6.95020      4.76453         0.001226     -0.002434     -0.002390
      1.46838      2.54604      0.81071        -0.038352     -0.078137     -0.032146
      5.32330      4.58808      0.74783        -0.003727      0.046487     -0.042922
      0.12396      1.80937      2.91027        -0.001860     -0.000464      0.001204
    total drift:                                0.015343      0.036661     -0.059967

  FREE ENERGIE OF THE ION-ELECTRON SYSTEM (eV)
  free  energy   TOTEN  =      -489.51222192 eV

  energy  without entropy=     -489.50498288  energy(sigma->0) =     -489.51041216

 reached required accuracy - stopping structural energy minimisation