 vasp.5.4.1 05Feb16 (build Mar 19 2020 08:54:17) complex

 executed on           IFC91_ompi date 2022.01.25  14:40:59

 INCAR:
 POTCAR:   PAW_PBE Ni 06Sep2000
 POTCAR:    PAW_PBE Nb_sv 25May2007
 POTCAR:    PAW_PBE W 08Apr2002
 POTCAR:    PAW_PBE Cl 17Jan2003

 POTCAR:   PAW_PBE Ni 06Sep2000
   VRHFIN =Ni:

   TITEL  = PAW_PBE Ni 06Sep2000
   POMASS =   58.690; ZVAL   =   10.000    mass and valenz
   ENMAX  =  269.533; ENMIN  =  202.150 eV
   QCUT   =   -4.451; QGAM   =    8.902    optimization parameters

   Description
     l     E      TYP  RCUT    TYP  RCUT
     2   .000     23  2.300
     2   .000     23  2.300
     0   .000     23  2.300
     0   .000     23  2.300
     1  -.200     23  2.300
     1   .000     23  2.300
     3   .000      7   .000

 POTCAR:    PAW_PBE Nb_sv 25May2007
   VRHFIN =Nb: 4p5s4d

   TITEL  = PAW_PBE Nb_sv 25May2007
   POMASS =   92.910; ZVAL   =   13.000    mass and valenz
   ENMAX  =  293.235; ENMIN  =  219.927 eV

 POTCAR:    PAW_PBE W 08Apr2002
   VRHFIN =W : 6s5d

   TITEL  = PAW_PBE W 08Apr2002
   POMASS =  183.850; ZVAL   =    6.000    mass and valenz
   ENMAX  =  223.057; ENMIN  =  167.293 eV

 POTCAR:    PAW_PBE Cl 17Jan2003
   VRHFIN =Cl: s2p5

   TITEL  = PAW_PBE Cl 17Jan2003
   POMASS =   35.453; ZVAL   =    7.000    mass and valenz
   ENMAX  =  280.000; ENMIN  =  196.854 eV
   QCUT   =   -4.392; QGAM   =    8.784    optimization parameters

   Description
     l     E      TYP  RCUT    TYP  RCUT
     0   .000     23  1.900
     0   .000     23  1.900
     1   .000     23  1.900
     1   .000     23  1.900
     2   .000     23  1.900

 Optimization of the real space projectors (new method)

 maximal supplied QI-value         = 16.25
 optimisation between [QCUT,QGAM] = [ 10.73, 21.61] = [ 32.22,130.83] Ry
 Optimized for a Real-space Cutoff    1.38 Angstroem

   l    n(q)    QCUT    max X(q) W(low)/X(q) W(high)/X(q)  e(spline)
   2      8    10.726     4.811    0.85E-04    0.11E-04    0.42E-07
   2      8    10.726    15.146    0.35E-03    0.36E-03    0.16E-06
   0      9    10.726    14.357    0.27E-04    0.12E-04    0.41E-08
   0      9    10.726    43.282    0.32E-03    0.20E-03    0.51E-07
   1      8    10.726     5.514    0.41E-04    0.49E-04    0.31E-07
   1      8    10.726     7.697    0.22E-03    0.14E-03    0.16E-06
 Optimization of the real space projectors (new method)

[...]

   l    n(q)    QCUT    max X(q) W(low)/X(q) W(high)/X(q)  e(spline)
   2     10    10.749   130.855    0.24E-03    0.22E-03    0.39E-06
   2     10    10.749   114.007    0.24E-03    0.22E-03    0.39E-06
   0     11    10.749    84.709    0.32E-04    0.10E-04    0.34E-06
   0     11    10.749    49.163    0.26E-04    0.89E-05    0.31E-06
   1     10    10.749    15.765    0.14E-03    0.94E-05    0.22E-06
   1     10    10.749    10.638    0.10E-03    0.52E-05    0.16E-06
 Optimization of the real space projectors (new method)

 maximal supplied QI-value         = 19.84
 optimisation between [QCUT,QGAM] = [ 10.71, 21.63] = [ 32.15,130.99] Ry
 Optimized for a Real-space Cutoff    1.19 Angstroem

   l    n(q)    QCUT    max X(q) W(low)/X(q) W(high)/X(q)  e(spline)
   0      8    10.715     4.846    0.17E-04    0.92E-05    0.44E-08
   0      8    10.715    64.115    0.37E-03    0.50E-04    0.57E-07
   1      7    10.715     3.092    0.31E-04    0.76E-05    0.15E-07
   1      7    10.715    37.586    0.19E-03    0.58E-03    0.68E-07
 PAW_PBE Ni 06Sep2000                   :
  PAW_PBE Nb_sv 25May2007               :
  PAW_PBE W 08Apr2002                   :
  PAW_PBE Cl 17Jan2003                  :

 POSCAR: Ni Nb  W
  positions in direct lattice
  velocities in cartesian coordinates
 exchange correlation table for  LEXCH =        8
   RHO(1)=    0.500       N(1)  =     2000
   RHO(2)=  100.500       N(2)  =     4000

 ion  position               nearest neighbor table
   1  0.017  0.480  0.240-   6 2.46  31 2.47  44 2.50  16 2.52  68 2.52  35 2.53  69 2.57  10 2.57
                            60 2.65
   2  0.188  0.971  0.247-  64 2.48  24 2.53  65 2.53   3 2.55  13 2.59  66 2.59  14 2.68  58 2.68
                            56 2.71
   3  0.016  0.029  0.176-  14 2.52   4 2.53  62 2.55   2 2.55   5 2.57  64 2.57  49 2.58  72 2.58
                            13 2.59  38 2.59  21 2.64  56 2.66
   4  0.176  0.196  0.175-  10 2.50  13 2.51   3 2.53  61 2.53  31 2.54  72 2.57  49 2.59  42 2.62
                            58 2.62   8 2.67   7 2.67  56 2.75
   5  0.180  0.976  0.103-  72 2.48  30 2.51  29 2.52  42 2.52  18 2.53  13 2.53  50 2.54   3 2.57
                            47 2.57  21 2.57  64 2.59  48 2.62
   6  0.869  0.315  0.238-  10 2.41  54 2.42  31 2.45   1 2.46  49 2.47  51 2.49  56 2.51  16 2.60
                            39 2.77
   7  0.182  0.309  0.097-  22 2.49  10 2.50  70 2.50  37 2.52  45 2.53  28 2.56  20 2.56  61 2.57
                            42 2.57  72 2.61  12 2.62   4 2.67
   8  0.520  0.198  0.173-  61 2.44  51 2.51  39 2.51  49 2.52  38 2.52  13 2.53  12 2.56  42 2.60
                            34 2.61   4 2.67  58 2.70  54 2.75
   9  0.692  0.704  0.025-  32 2.46  43 2.52  63 2.52  15 2.53  19 2.54  41 2.55  57 2.56  59 2.59
                            36 2.67
  10  0.020  0.361  0.168-   6 2.41   4 2.50   7 2.50  28 2.53  31 2.53  69 2.54  22 2.54  35 2.56
                            49 2.57  51 2.57   1 2.57  61 2.62
  11  0.681  0.806  0.244-  23 2.46  66 2.50  24 2.51  44 2.51  62 2.52  14 2.54  65 2.56  17 2.57
                            33 2.59
  12  0.518  0.300  0.097-  34 2.47  42 2.48  40 2.49  71 2.51  20 2.54  61 2.55   8 2.56  67 2.59
                            51 2.60  28 2.61  45 2.61   7 2.62
  13  0.348  0.034  0.173-  66 2.45   4 2.51  42 2.52   8 2.53   5 2.53  64 2.58   3 2.59   2 2.59
                            48 2.60  38 2.60  33 2.63  58 2.73
  14  0.844  0.973  0.246-  39 2.50  65 2.51  56 2.52   3 2.52  66 2.53  11 2.54  62 2.54  38 2.61
                             2 2.68
  15  0.850  0.640  0.096-  41 2.49  19 2.51  43 2.51  35 2.51   9 2.53  53 2.56  17 2.57  22 2.57
                            67 2.58  18 2.58  27 2.60  59 2.66
  16  0.693  0.482  0.239-  44 2.42  54 2.45  25 2.47  35 2.48  23 2.52   1 2.52  51 2.56   6 2.60
                            60 2.62
  17  0.688  0.695  0.170-  44 2.50  23 2.51  35 2.53  43 2.53  62 2.54  27 2.55  33 2.55  25 2.56
                            15 2.57  11 2.57  26 2.60  59 2.63
  18  0.017  0.810  0.101-  53 2.51  27 2.52  29 2.52   5 2.53  43 2.53  21 2.53  47 2.54  19 2.54
                            32 2.57  62 2.58  15 2.58  64 2.62
  19  0.019  0.702  0.028-  53 2.46  47 2.48  15 2.51  32 2.52  18 2.54   9 2.54  41 2.56  36 2.57
                            55 2.61
  20  0.357  0.358  0.025-  45 2.51  70 2.53  12 2.54  71 2.55   7 2.56  40 2.58  55 2.63  37 2.67
                            57 2.76
  21  0.849  0.975  0.100-  72 2.49  32 2.50  34 2.51  43 2.52  62 2.52  46 2.52  50 2.53  18 2.53
                            38 2.53   5 2.57  48 2.59   3 2.64
  22  0.015  0.471  0.096-   7 2.49  69 2.50  37 2.52  55 2.53  35 2.53  10 2.54  28 2.55  41 2.55
                            67 2.57  15 2.57  53 2.61  45 2.64
  23  0.520  0.644  0.241-  26 2.45  11 2.46  24 2.49  17 2.51  16 2.52  60 2.52  44 2.56  25 2.57
                            68 2.59
  24  0.359  0.807  0.248-  23 2.49  66 2.49  11 2.51   2 2.53  68 2.53  64 2.55  26 2.59  33 2.64
                            65 2.72
  25  0.523  0.527  0.169-  16 2.47  51 2.54  17 2.56  35 2.56  23 2.57  61 2.59  26 2.60  60 2.60
                            45 2.61  67 2.62  59 2.67  69 2.67
  26  0.354  0.697  0.173-  23 2.45  33 2.48  64 2.52  68 2.52  24 2.59  29 2.60  25 2.60  69 2.60
                            17 2.60  59 2.61  27 2.63  53 2.68
  27  0.016  0.693  0.171-  44 2.50  35 2.51  69 2.51  18 2.52  17 2.55  53 2.56  68 2.57  64 2.59
                            15 2.60  26 2.63  62 2.66  65 2.71
  28  0.853  0.302  0.098-  72 2.50  34 2.51  10 2.53  71 2.53  52 2.53  49 2.54  37 2.54  51 2.55
                            22 2.55   7 2.56  67 2.57  12 2.61
  29  0.341  0.810  0.099-  47 2.43  63 2.47  59 2.48  53 2.51   5 2.52  18 2.52  33 2.54  48 2.57
                            26 2.60  36 2.60  64 2.62  43 2.73
  30  0.342  0.025  0.031-  47 2.45  48 2.49  50 2.50  40 2.51   5 2.51  63 2.51  42 2.51  70 2.52
                            46 2.64
  31  0.183  0.320  0.242-   6 2.45   1 2.47  60 2.48  61 2.51  10 2.53   4 2.54  58 2.54  56 2.78
                            54 2.95
  32  0.849  0.866  0.029-   9 2.46  43 2.46  46 2.48  50 2.49  21 2.50  19 2.52  63 2.56  18 2.57
                            47 2.62
  33  0.515  0.860  0.170-  66 2.45  26 2.48  48 2.52  62 2.52  29 2.54  64 2.55  17 2.55  43 2.57
                            11 2.59  38 2.61  13 2.63  24 2.64
  34  0.684  0.139  0.099-  12 2.47  40 2.49  46 2.51  28 2.51  21 2.51  38 2.51  48 2.51  52 2.54
                            49 2.55  72 2.58   8 2.61  42 2.62
  35  0.852  0.529  0.167-  16 2.48  27 2.51  15 2.51   1 2.53  17 2.53  22 2.53  69 2.55  51 2.55
                            10 2.56  25 2.56  67 2.59  44 2.60
  36  0.348  0.701  0.023-  47 2.49  59 2.52  63 2.56  19 2.57  53 2.60  29 2.60  55 2.64  57 2.65
                             9 2.67
  37  0.015  0.357  0.025-  22 2.52   7 2.52  70 2.53  28 2.54  52 2.54  71 2.57  55 2.58  41 2.66
                            20 2.67
  38  0.683  0.032  0.171-  66 2.46  39 2.49  49 2.49  62 2.50  34 2.51   8 2.52  48 2.53  21 2.53
                             3 2.59  13 2.60  14 2.61  33 2.61
  39  0.680  0.136  0.244-  56 2.47  38 2.49  14 2.50   8 2.51  66 2.52  54 2.54  49 2.55  58 2.65
                             6 2.77
  40  0.516  0.186  0.028-  46 2.46  34 2.49  12 2.49  30 2.51  71 2.52  42 2.53  70 2.55  20 2.58
                            52 2.65
  41  0.852  0.535  0.024-  15 2.49  57 2.50  55 2.52  67 2.54   9 2.55  22 2.55  19 2.56  37 2.66
                            71 2.76
  42  0.348  0.140  0.100-  12 2.48  30 2.51  70 2.52  13 2.52   5 2.52  40 2.53  48 2.53   7 2.57
                            72 2.59   8 2.60   4 2.62  34 2.62
  43  0.692  0.807  0.098-  63 2.45  32 2.46  15 2.51   9 2.52  21 2.52  18 2.53  59 2.53  17 2.53
                            62 2.53  33 2.57  48 2.60  29 2.73
  44  0.849  0.642  0.241-  16 2.42  27 2.50  17 2.50   1 2.50  11 2.51  65 2.54  23 2.56  35 2.60
                            68 2.63
  45  0.354  0.473  0.095-  20 2.51   7 2.53  69 2.54  55 2.56  67 2.58  59 2.60  25 2.61  12 2.61
                            53 2.63  22 2.64  61 2.65  57 2.97
  46  0.681  0.026  0.029-  63 2.45  40 2.46  32 2.48  34 2.51  48 2.51  52 2.52  21 2.52  30 2.64
                            50 2.64
  47  0.185  0.863  0.030-  29 2.43  30 2.45  19 2.48  50 2.48  36 2.49  18 2.54   5 2.57  63 2.61
                            32 2.62
  48  0.516  0.976  0.100-  63 2.43  30 2.49  46 2.51  34 2.51  33 2.52  42 2.53  38 2.53  29 2.57
                            21 2.59  13 2.60  43 2.60   5 2.62
  49  0.844  0.196  0.172-  51 2.47   6 2.47  38 2.49   8 2.52  28 2.54  72 2.54  34 2.55  39 2.55
[...]
   -.162E+02 0.176E+03 -.108E+04   0.164E+02 -.175E+03 0.108E+04   -.177E+00 -.113E+01 -.201E+00   0.758E-02 -.244E-01 -.606E-03
   -.295E+02 -.394E+02 -.935E+03   0.290E+02 0.384E+02 0.936E+03   0.492E+00 0.104E+01 -.968E+00   0.104E-02 -.524E-02 0.268E-02
   0.418E+02 -.162E+02 0.916E+03   -.412E+02 0.155E+02 -.916E+03   -.608E+00 0.683E+00 0.202E+00   0.131E-02 -.253E-01 -.776E-02
   -.203E+02 -.114E+03 -.298E+04   0.218E+02 0.115E+03 0.298E+04   -.154E+01 -.114E+01 -.874E-01   0.642E-02 0.108E-01 0.113E-01
   -.349E+02 0.631E+02 0.114E+04   0.347E+02 -.632E+02 -.114E+04   0.169E+00 -.181E-01 0.773E-01   0.191E-02 0.105E-01 -.658E-02
   0.872E+02 -.649E+02 -.101E+04   -.868E+02 0.635E+02 0.101E+04   -.392E+00 0.139E+01 -.253E+00   -.753E-02 -.319E-02 0.714E-02
   0.218E+02 -.916E+02 0.328E+04   -.210E+02 0.922E+02 -.328E+04   -.872E+00 -.658E+00 0.151E+00   0.652E-02 0.305E-02 0.614E-02
   -.141E+03 -.119E+03 -.847E+03   0.141E+03 0.119E+03 0.847E+03   0.268E+00 0.142E+00 0.556E+00   0.468E-02 0.208E-01 0.772E-02
   -.754E+02 -.416E+02 -.313E+04   0.756E+02 0.408E+02 0.313E+04   -.262E+00 0.779E+00 -.671E+00   0.323E-03 -.113E-01 -.574E-02
   0.650E+01 -.135E+03 0.116E+04   -.637E+01 0.135E+03 -.116E+04   -.997E-01 0.406E+00 -.117E+00   -.760E-02 0.146E-01 -.749E-02
   0.246E+02 0.130E+03 -.109E+04   -.244E+02 -.129E+03 0.109E+04   -.137E+00 -.130E+01 0.888E+00   -.757E-02 -.241E-01 -.351E-02
   0.253E+02 0.260E+03 -.313E+04   -.259E+02 -.260E+03 0.313E+04   0.593E+00 0.136E+00 -.111E+01   0.298E-02 -.178E-01 0.243E-02
   0.436E+01 0.626E+02 0.108E+04   -.402E+01 -.625E+02 -.108E+04   -.288E+00 -.589E-01 -.170E+00   0.373E-02 0.171E-01 -.903E-02
   0.698E+02 -.101E+03 -.301E+04   -.693E+02 0.103E+03 0.301E+04   -.482E+00 -.187E+01 -.508E+00   0.428E-02 0.197E-01 0.291E-02
   -.431E+02 -.571E+02 -.103E+04   0.431E+02 0.567E+02 0.103E+04   -.101E-01 0.424E+00 0.159E+00   0.327E-02 0.543E-02 -.652E-02
   -.899E+01 -.573E+02 0.829E+03   0.892E+01 0.572E+02 -.829E+03   0.677E-01 0.201E-01 0.514E+00   0.254E-04 -.129E-01 -.110E-01
   0.120E+02 -.528E+02 0.322E+04   -.120E+02 0.532E+02 -.322E+04   0.540E-02 -.527E+00 -.418E+00   -.144E-02 0.484E-02 0.582E-02
   -.451E+02 0.123E+03 0.323E+04   0.455E+02 -.122E+03 -.323E+04   -.399E+00 -.938E+00 0.198E+01   -.241E-02 0.154E-01 -.118E-01
   -.608E+02 -.126E+02 0.992E+03   0.602E+02 0.124E+02 -.993E+03   0.527E+00 0.219E+00 0.108E+01   0.747E-02 -.326E-01 -.915E-02
   0.236E+02 0.225E+02 0.108E+04   -.239E+02 -.225E+02 -.108E+04   0.475E+00 0.417E-01 -.698E+00   0.600E-03 0.308E-01 -.590E-02
   0.117E+03 0.277E+02 -.304E+04   -.116E+03 -.274E+02 0.304E+04   -.296E+00 -.338E+00 0.777E-02   0.734E-03 0.996E-02 -.373E-02
   0.113E+03 0.246E+02 -.316E+04   -.113E+03 -.252E+02 0.316E+04   0.483E+00 0.611E+00 -.108E+01   -.145E-02 -.855E-02 -.555E-02
   0.169E+03 0.761E+02 -.956E+03   -.169E+03 -.758E+02 0.956E+03   0.147E+00 -.351E+00 -.333E+00   -.965E-03 0.229E-01 0.239E-03
   0.158E+03 0.467E+02 -.120E+04   -.158E+03 -.470E+02 0.120E+04   -.282E+00 0.253E+00 -.802E-01   -.337E-03 0.605E-02 -.287E-02
   -.110E+03 -.892E+02 -.120E+04   0.109E+03 0.896E+02 0.120E+04   0.587E+00 -.432E+00 0.333E+00   -.213E-02 0.473E-02 -.813E-02
   0.185E+02 -.287E+02 0.123E+04   -.184E+02 0.289E+02 -.123E+04   -.173E+00 -.191E+00 -.125E+01   0.577E-02 0.155E-01 -.866E-02
   0.152E+02 -.705E+02 0.101E+04   -.165E+02 0.720E+02 -.101E+04   0.130E+01 -.142E+01 -.644E+00   -.421E-02 -.722E-02 -.881E-02
   0.733E+01 -.442E+02 0.321E+04   -.706E+01 0.441E+02 -.321E+04   -.256E+00 0.118E+00 0.709E+00   -.521E-02 -.236E-01 -.467E-02
   -.117E+03 -.236E+03 -.294E+04   0.117E+03 0.236E+03 0.294E+04   0.770E-01 -.516E+00 -.243E+00   -.361E-02 0.143E-01 0.894E-02
   0.289E+02 -.635E+02 0.323E+04   -.292E+02 0.637E+02 -.323E+04   0.288E+00 -.252E+00 -.875E+00   0.416E-02 -.197E-01 0.208E-02
   0.233E+02 -.918E+01 -.106E+04   -.236E+02 0.858E+01 0.106E+04   0.381E+00 0.616E+00 0.144E+01   -.258E-02 -.173E-01 -.554E-02
   -.540E+02 -.288E+02 0.115E+04   0.535E+02 0.285E+02 -.115E+04   0.404E+00 0.428E+00 -.196E+00   -.128E-02 -.172E-01 -.107E-01
   -.546E+02 -.206E+02 -.844E+03   0.546E+02 0.208E+02 0.844E+03   -.527E-01 -.157E+00 -.429E-02   0.394E-02 0.246E-01 -.265E-02
   -.265E+02 -.113E+03 0.333E+04   0.257E+02 0.113E+03 -.333E+04   0.827E+00 -.642E-01 0.163E+01   -.519E-02 0.609E-02 0.348E-02
   0.561E+02 0.135E+03 0.326E+04   -.559E+02 -.136E+03 -.326E+04   -.225E+00 0.781E+00 0.104E+01   0.220E-02 0.161E-01 -.126E-01
   -.122E+02 0.148E+03 -.103E+04   0.121E+02 -.147E+03 0.103E+04   0.603E-01 -.138E+01 0.158E+01   -.888E-03 -.271E-01 0.466E-02
   0.748E+02 0.124E+03 -.312E+04   -.758E+02 -.125E+03 0.313E+04   0.105E+01 0.111E+01 -.192E+01   0.400E-02 -.769E-02 0.129E-01
   0.338E+02 -.589E+02 0.327E+04   -.340E+02 0.588E+02 -.327E+04   0.120E+00 0.114E+00 -.689E+00   -.559E-02 -.720E-02 -.170E-01
   0.541E+02 0.145E+03 0.321E+04   -.541E+02 -.146E+03 -.321E+04   0.409E-01 0.806E+00 0.632E+00   0.267E-02 0.252E-01 -.717E-03
   0.108E+03 -.538E+02 0.111E+04   -.108E+03 0.536E+02 -.111E+04   -.517E+00 0.260E+00 -.590E+00   -.953E-02 -.186E-01 -.687E-02
   -.140E+01 -.735E+02 0.104E+04   0.255E+01 0.740E+02 -.104E+04   -.112E+01 -.363E+00 -.716E+00   0.393E-02 -.150E-01 -.739E-02
   -.133E+03 -.116E+03 -.310E+04   0.133E+03 0.116E+03 0.310E+04   0.216E-01 -.796E-01 -.518E+00   -.261E-03 0.827E-02 -.619E-02
   -.717E+02 0.655E+02 0.105E+04   0.716E+02 -.659E+02 -.105E+04   -.333E-01 0.301E+00 0.267E+00   -.380E-02 0.244E-01 -.600E-02
   0.167E+02 0.811E+01 0.326E+04   -.167E+02 -.752E+01 -.326E+04   0.660E-01 -.550E+00 -.100E+01   -.405E-03 -.254E-01 -.118E-01
   -.437E+02 -.705E+02 0.320E+04   0.439E+02 0.705E+02 -.320E+04   -.240E+00 0.102E+00 -.674E+00   -.255E-02 -.158E-01 0.298E-02
   0.206E+02 0.438E+02 0.108E+04   -.207E+02 -.426E+02 -.108E+04   0.770E-01 -.112E+01 -.117E+01   -.877E-02 -.296E-01 -.991E-02
   -.539E+02 0.372E+02 -.883E+03   0.540E+02 -.369E+02 0.884E+03   -.116E+00 -.258E+00 -.743E+00   0.746E-02 -.265E-02 0.118E-01
   -.284E+02 -.125E+03 0.319E+04   0.284E+02 0.125E+03 -.319E+04   -.577E-01 0.481E-01 0.521E-01   0.550E-02 -.228E-01 -.600E-02
   0.120E+03 -.113E+03 -.828E+03   -.120E+03 0.113E+03 0.828E+03   -.161E+00 0.173E+00 0.112E+00   0.173E-02 0.208E-01 0.631E-02
   -.627E+02 -.399E+02 0.324E+04   0.637E+02 0.390E+02 -.324E+04   -.940E+00 0.917E+00 -.645E+00   0.560E-02 -.734E-02 -.183E-01
   0.121E+01 0.473E+02 0.973E+03   -.213E+01 -.471E+02 -.973E+03   0.931E+00 -.317E+00 0.434E+00   -.703E-02 0.149E-01 -.959E-02
   0.153E+03 -.176E+03 -.421E+04   -.153E+03 0.176E+03 0.421E+04   -.497E+00 -.652E+00 0.567E+01   -.175E-02 0.105E-01 0.685E-02
   -.182E+02 0.823E+02 0.423E+04   0.185E+02 -.824E+02 -.422E+04   -.315E+00 0.695E-01 -.473E+01   -.393E-02 0.290E-01 -.318E-02
   0.444E+02 0.803E+02 -.414E+04   -.447E+02 -.804E+02 0.414E+04   0.314E+00 0.820E-01 0.373E+01   -.487E-02 -.586E-02 0.348E-02
   -.328E+02 0.180E+03 0.452E+04   0.334E+02 -.180E+03 -.451E+04   -.621E+00 0.292E+00 -.653E+01   0.105E-02 0.231E-01 -.199E-02
   -.141E+03 0.104E+03 -.408E+04   0.141E+03 -.104E+03 0.408E+04   -.127E-01 0.336E+00 0.359E+01   -.504E-02 -.101E-01 0.292E-02
   -.171E+02 0.140E+03 0.145E+04   0.172E+02 -.140E+03 -.145E+04   -.155E+00 0.233E+00 0.750E+00   0.377E-02 0.195E-01 -.916E-02
   0.457E+02 -.534E+02 -.181E+04   -.450E+02 0.526E+02 0.181E+04   -.626E+00 0.866E+00 0.369E+01   -.210E-02 0.948E-02 0.180E-02
   0.137E+02 -.112E+03 -.582E+03   -.135E+02 0.113E+03 0.583E+03   -.122E+00 -.727E+00 -.107E+01   -.330E-02 0.107E-01 0.214E-02
   -.818E+02 0.372E+02 -.693E+03   0.826E+02 -.375E+02 0.693E+03   -.766E+00 0.269E+00 -.229E+00   0.192E-02 -.123E-01 -.354E-02
   0.126E+02 -.291E+02 0.191E+04   -.124E+02 0.291E+02 -.190E+04   -.268E+00 -.627E-01 -.280E+01   -.114E-02 -.880E-02 0.637E-03
   0.667E+02 0.476E+02 -.745E+03   -.676E+02 -.478E+02 0.745E+03   0.874E+00 0.166E+00 -.308E+00   -.392E-03 -.784E-02 -.298E-02
   -.296E+02 0.489E+02 -.189E+04   0.297E+02 -.490E+02 0.189E+04   -.104E+00 0.871E-01 0.377E+01   0.107E-02 -.441E-02 -.309E-02
   0.812E+01 0.701E+02 -.182E+04   -.799E+01 -.697E+02 0.182E+04   -.133E+00 -.374E+00 0.236E+01   -.186E-02 -.116E-01 0.937E-03
   0.313E+02 0.451E+02 0.753E+03   -.316E+02 -.451E+02 -.754E+03   0.310E+00 -.114E+00 0.862E+00   0.178E-02 0.177E-01 -.471E-02
   0.134E+02 -.325E+02 -.185E+04   -.139E+02 0.328E+02 0.184E+04   0.515E+00 -.397E+00 0.289E+01   -.125E-03 0.500E-02 -.493E-02
   -.669E+02 0.212E+01 -.630E+03   0.671E+02 -.228E+01 0.630E+03   -.274E+00 0.153E+00 -.584E+00   -.135E-02 0.112E-01 -.603E-03
   0.254E+02 0.149E+02 0.192E+04   -.256E+02 -.146E+02 -.192E+04   0.175E+00 -.410E+00 -.345E+01   -.176E-03 -.467E-02 -.719E-02
   -.819E+01 -.413E+00 0.192E+04   0.767E+01 0.645E+00 -.192E+04   0.445E+00 -.981E-01 -.274E+01   0.798E-04 0.103E-01 -.893E-02
   -.342E+02 -.203E+02 0.661E+03   0.344E+02 0.204E+02 -.662E+03   -.237E+00 -.937E-01 0.563E+00   0.661E-02 -.111E-01 -.500E-02
   -.983E+01 0.206E+02 -.272E+04   0.963E+01 -.204E+02 0.272E+04   0.209E+00 -.220E+00 -.327E+01   -.411E-02 0.777E-02 0.408E-03
   0.535E+01 -.456E+02 -.256E+04   -.575E+01 0.454E+02 0.256E+04   0.395E+00 0.163E+00 -.430E+01   0.429E-03 -.930E-02 0.445E-03
   0.834E+00 0.347E+01 0.734E+01   -.107E-12 -.121E-12 0.909E-11   -.847E+00 -.350E+01 -.710E+01   -.483E-02 -.151E-02 -.196E+00

 POSITION                                       TOTAL-FORCE (eV/Angst)
      0.08761      6.28940      6.83278        -0.002780      0.004009     -0.004405
      1.47028     12.75952      7.07956        -0.001681      0.001774      0.000113
      0.12408      0.37653      5.06664        -0.002297     -0.001061     -0.003156
      1.37992      2.56705      4.99949        -0.003708     -0.000756      0.001581
      1.40410     12.82160      2.95254         0.000110     -0.001208      0.002281
      6.73332      4.11919      6.83155         0.000909     -0.004812      0.000292
      1.41457      4.06383      2.79719        -0.035057     -0.089567     -0.087055
      4.04659      2.59778      4.98199         0.000630      0.000788     -0.003361
      5.38075      9.24278      0.71169        -0.003900     -0.007331      0.005006
      0.15198      4.73794      4.83134        -0.005935     -0.000300      0.001153
      5.30769     10.58228      7.00352        -0.001012     -0.002677      0.000605
      4.02729      3.93666      2.80194         0.019997     -0.035396     -0.070553
      2.71821      0.43975      4.98225         0.002118     -0.001684     -0.001350
      6.56135     12.78848      7.07742        -0.002163     -0.000309     -0.001900
      6.60979      8.41264      2.76411         0.049702      0.081153     -0.039146
      5.37791      6.34340      6.83750        -0.005891     -0.004403     -0.000197
      5.36403      9.13207      4.86557        -0.004095     -0.001826      0.001915
      0.13103     10.63096      2.91857         0.001302     -0.001849      0.000852
      0.14422      9.22923      0.79266        -0.013746     -0.065003     -0.008588
      2.77871      4.70328      0.72574         0.028944     -0.006105      0.043571
      6.60906     12.80815      2.88010        -0.000622     -0.002642      0.000446
      0.11461      6.18628      2.75108         0.166760      0.118410      0.057713
      4.06669      8.46609      6.86677        -0.000084     -0.002406      0.003929
      2.78724     10.60741      7.08416        -0.005120      0.002198      0.002772
      4.05441      6.90779      4.85593        -0.002376     -0.001757      0.002929
      2.72123      9.14991      4.97448         0.000128     -0.000748     -0.002367
      0.13310      9.11056      4.92966        -0.000734     -0.000543     -0.001255
      6.63818      3.96691      2.81648        -0.000111     -0.051642     -0.054890
      2.65531     10.63517      2.83430         0.005869     -0.005272     -0.051408
      2.66192      0.32919      0.88456         0.004231      0.030640     -0.008552
      1.42067      4.20571      6.92543        -0.003374     -0.003952     -0.003414
      6.60150     11.37216      0.82930         0.024956      0.011810     -0.002833
      4.00733     11.28929      4.87075         0.004502     -0.000389     -0.000067
      5.32098      1.83034      2.83911        -0.027165      0.045327      0.019950
      6.63025      6.95103      4.79059        -0.001898      0.001498      0.005487
      2.70894      9.20606      0.66071        -0.014153      0.015167      0.043094
      0.11363      4.68562      0.72988         0.003301      0.026183      0.048170
      5.30861      0.41731      4.92376        -0.000127     -0.002357     -0.004347
      5.28061      1.78322      7.02140        -0.003215     -0.000453     -0.000476
      4.01180      2.43913      0.81050        -0.034132     -0.051056     -0.042889
      6.62988      7.02267      0.69623         0.024767     -0.007964      0.067650
      2.70483      1.84323      2.88434        -0.000260     -0.002631     -0.002957
      5.38517     10.60422      2.82717         0.032370      0.070810     -0.053638
      6.59793      8.43502      6.91636        -0.006358     -0.000279      0.003611
      2.75075      6.21700      2.72905        -0.134171     -0.046901      0.117593
      5.29931      0.33988      0.82306         0.037645      0.013775     -0.026123
      1.44012     11.34383      0.85416        -0.027508      0.026430     -0.031942
      4.02126     12.82125      2.87083        -0.000516     -0.002043      0.000967
      6.55085      2.57059      4.92873        -0.002074      0.000024     -0.001548
      0.16465      0.33401      0.83661        -0.012302      0.109912      0.080015
      5.35621      4.73515      4.87087        -0.001856     -0.000228      0.004611
      6.65773      2.46519      0.77459         0.045895     -0.036125      0.057618
      1.38750      8.46756      2.77258         0.006258     -0.081689      0.154492
      4.34000      4.15389      7.24388        -0.004505     -0.007364     -0.003660
      1.37429      6.93127      0.68822         0.027692      0.017269      0.093653
      7.73757      1.88147      7.25286        -0.001750     -0.001131     -0.004246
      4.17387      7.03491      0.25378        -0.005680     -0.062155     -0.165555
      2.65541      2.00190      7.21970        -0.005344     -0.002033     -0.002974
      3.95023      8.52327      2.74364        -0.043357      0.075520      0.022728
      2.81570      6.30484      7.13859        -0.001546      0.005761      0.003425
      2.76487      4.66840      4.87781         0.000919     -0.001141      0.002029
      6.52323     11.38030      4.95336        -0.004197     -0.000966     -0.000168
      4.04507     11.36964      0.92515         0.009547      0.007532     -0.027256
      1.46829     11.32286      5.05005         0.001404     -0.003737     -0.001059
      0.08316     10.64885      7.16347        -0.001457      0.000082     -0.000742
      4.05005     12.73639      6.86384        -0.002867      0.000248      0.001797
      5.32598      6.17665      2.70407         0.029955     -0.094189     -0.098182
      1.41275      8.47335      7.14299        -0.002111     -0.008212      0.001489
      1.43103      6.95323      4.81925        -0.001460      0.007009     -0.000269
      1.46838      2.54604      0.81071        -0.015326     -0.112242      0.035751
      5.32330      4.58808      0.74783        -0.072640      0.144698     -0.069478
      0.11643      1.79635      2.92600        -0.003692      0.001339     -0.000274
      1.28637      1.99423      9.36199         0.001700      0.004860     -0.002962
      1.90023      7.27894      9.25078        -0.005260     -0.005694     -0.004046
    total drift:                               -0.017395     -0.029931      0.041519

  FREE ENERGIE OF THE ION-ELECTRON SYSTEM (eV)
  free  energy   TOTEN  =      -509.03057938 eV

  energy  without entropy=     -509.05041152  energy(sigma->0) =     -509.03553741

 d Force = 0.1712707E-03[ 0.844E-04, 0.258E-03]  d Energy = 0.1840597E-03-0.128E-04
 d Force =-0.1839273E+02[-0.184E+02,-0.184E+02]  d Ewald  =-0.1839273E+02 0.594E-06

 Conjugate gradient step on ions:
 trial-energy change:   -0.000184  1 .order   -0.000171   -0.000258   -0.000084
  (g-gl).g = 0.317E-04      g.g   = 0.294E-04  gl.gl    = 0.533E-04
 g(Force)  = 0.294E-04   g(Stress)= 0.000E+00 ortho     =-0.782E-07
 gamma     =   0.59449
 trial     =   8.78686
 opt step  =  11.49356  (harmonic =  13.05765) maximal distance =0.00185630
 next E    =  -509.030593   (d E  =  -0.00020)

 reached required accuracy - stopping structural energy minimisation