 vasp.5.4.1 05Feb16 (build Mar 19 2020 08:54:17) complex

 executed on           IFC91_ompi date 2022.03.08  13:18:48

 INCAR:
 POTCAR:   PAW_PBE Ni 06Sep2000
 POTCAR:    PAW_PBE Nb_sv 25May2007
 POTCAR:    PAW_PBE W 08Apr2002

 POTCAR:   PAW_PBE Ni 06Sep2000
   VRHFIN =Ni:

   TITEL  = PAW_PBE Ni 06Sep2000
   POMASS =   58.690; ZVAL   =   10.000    mass and valenz
   ENMAX  =  269.533; ENMIN  =  202.150 eV
   QCUT   =   -4.451; QGAM   =    8.902    optimization parameters

   Description
     l     E      TYP  RCUT    TYP  RCUT
     2   .000     23  2.300
     2   .000     23  2.300
     0   .000     23  2.300
     0   .000     23  2.300
     1  -.200     23  2.300
     1   .000     23  2.300
     3   .000      7   .000

 POTCAR:    PAW_PBE Nb_sv 25May2007
   VRHFIN =Nb: 4p5s4d

   TITEL  = PAW_PBE Nb_sv 25May2007
   POMASS =   92.910; ZVAL   =   13.000    mass and valenz
   ENMAX  =  293.235; ENMIN  =  219.927 eV

 POTCAR:    PAW_PBE W 08Apr2002
   VRHFIN =W : 6s5d

   TITEL  = PAW_PBE W 08Apr2002
   POMASS =  183.850; ZVAL   =    6.000    mass and valenz
   ENMAX  =  223.057; ENMIN  =  167.293 eV

 Optimization of the real space projectors (new method)

 maximal supplied QI-value         = 16.25
 optimisation between [QCUT,QGAM] = [ 10.73, 21.61] = [ 32.22,130.83] Ry
 Optimized for a Real-space Cutoff    1.38 Angstroem

   l    n(q)    QCUT    max X(q) W(low)/X(q) W(high)/X(q)  e(spline)
   2      8    10.726     4.811    0.85E-04    0.11E-04    0.42E-07
   2      8    10.726    15.146    0.35E-03    0.36E-03    0.16E-06
   0      9    10.726    14.357    0.27E-04    0.12E-04    0.41E-08
   0      9    10.726    43.282    0.32E-03    0.20E-03    0.51E-07
   1      8    10.726     5.514    0.41E-04    0.49E-04    0.31E-07
   1      8    10.726     7.697    0.22E-03    0.14E-03    0.16E-06
 Optimization of the real space projectors (new method)

[...]

   l    n(q)    QCUT    max X(q) W(low)/X(q) W(high)/X(q)  e(spline)
   0     11    10.822    10.201    0.23E-04    0.55E-05    0.31E-07
   0     11    10.822     8.174    0.35E-04    0.99E-05    0.65E-07
   1     10    10.822     3.488    0.18E-04    0.21E-04    0.55E-07
   1     10    10.822     4.917    0.15E-03    0.13E-03    0.29E-06
   2     10    10.822   153.744    0.28E-03    0.15E-03    0.13E-05
   2     10    10.822   126.342    0.28E-03    0.15E-03    0.13E-05
 Optimization of the real space projectors (new method)

 maximal supplied QI-value         = 13.61
 optimisation between [QCUT,QGAM] = [ 10.75, 21.63] = [ 32.35,131.06] Ry
 Optimized for a Real-space Cutoff    1.65 Angstroem

   l    n(q)    QCUT    max X(q) W(low)/X(q) W(high)/X(q)  e(spline)
   2     10    10.749   130.855    0.24E-03    0.22E-03    0.39E-06
   2     10    10.749   114.007    0.24E-03    0.22E-03    0.39E-06
   0     11    10.749    84.709    0.32E-04    0.10E-04    0.34E-06
   0     11    10.749    49.163    0.26E-04    0.89E-05    0.31E-06
   1     10    10.749    15.765    0.14E-03    0.94E-05    0.22E-06
   1     10    10.749    10.638    0.10E-03    0.52E-05    0.16E-06
 PAW_PBE Ni 06Sep2000                   :
  PAW_PBE Nb_sv 25May2007               :
  PAW_PBE W 08Apr2002                   :

 POSCAR: Ni Nb  W
  positions in direct lattice
  velocities in cartesian coordinates
 exchange correlation table for  LEXCH =        8
   RHO(1)=    0.500       N(1)  =     2000
   RHO(2)=  100.500       N(2)  =     4000

 ion  position               nearest neighbor table
   1  0.013  0.476  0.241-  15 2.48   9 2.49  67 2.50  43 2.52  30 2.54  34 2.56  68 2.60  59 2.75

   2  0.185  0.978  0.248-  63 2.55   3 2.55  64 2.55  12 2.59  23 2.61  13 2.62  65 2.62  57 2.63
                            55 2.75
   3  0.015  0.030  0.175-   4 2.53  13 2.53   2 2.55   5 2.55  61 2.56  63 2.57  55 2.57  71 2.58
                            48 2.60  37 2.60  12 2.60  20 2.62
   4  0.175  0.197  0.172-   9 2.46  60 2.52   3 2.53  71 2.55  12 2.55  57 2.57   6 2.59  41 2.59
                            55 2.60  48 2.60  30 2.61   7 2.70
   5  0.179  0.976  0.103-  71 2.48  29 2.51  41 2.52  17 2.52  28 2.52  49 2.53  12 2.54   3 2.55
                            46 2.57  20 2.57  63 2.60  47 2.62
   6  0.180  0.309  0.098-  21 2.48  69 2.51  36 2.53  27 2.54  44 2.55  19 2.57   9 2.59  41 2.59
                             4 2.59  60 2.59  71 2.61  11 2.62
   7  0.522  0.198  0.172-  60 2.46  48 2.48  11 2.52  38 2.52  37 2.53  50 2.55  12 2.55  33 2.56
                            41 2.59  57 2.60   4 2.70  53 2.70
   8  0.691  0.703  0.025-  31 2.46  62 2.52  42 2.52  14 2.53  40 2.54  18 2.55  56 2.56  58 2.58
                            35 2.67
   9  0.014  0.358  0.173-   4 2.46   1 2.49  50 2.50  48 2.50  30 2.56  68 2.57  34 2.58   6 2.59
                            27 2.59  60 2.65  21 2.65
  10  0.682  0.804  0.245-  65 2.47  22 2.48  61 2.51  43 2.51  23 2.56  13 2.57  16 2.58  64 2.60
                            32 2.60
  11  0.516  0.300  0.098-  33 2.48  41 2.48  39 2.50  19 2.51   7 2.52  70 2.52  60 2.59  50 2.60
                            66 2.60  44 2.61   6 2.62  27 2.63
  12  0.350  0.032  0.173-  65 2.48  41 2.54   5 2.54   4 2.55   7 2.55  63 2.57  37 2.58  47 2.58
                             2 2.59   3 2.60  57 2.62  32 2.63
  13  0.849  0.973  0.247-  38 2.48  64 2.49   3 2.53  61 2.55  65 2.57  10 2.57  55 2.59   2 2.62
                            37 2.64
  14  0.850  0.641  0.096-  40 2.50  18 2.50  34 2.51  42 2.51   8 2.53  52 2.55  16 2.57  66 2.58
                            21 2.58  17 2.58  26 2.60  58 2.67
  15  0.695  0.487  0.237-  43 2.40  53 2.42  34 2.43  24 2.45  22 2.47   1 2.48  50 2.56  59 2.58

  16  0.688  0.694  0.170-  43 2.51  34 2.52  22 2.52  61 2.53  32 2.54  42 2.55  24 2.56  26 2.56
                            14 2.57  10 2.58  25 2.61  58 2.64
  17  0.017  0.810  0.101-  26 2.50  28 2.52   5 2.52  52 2.52  42 2.53  20 2.53  46 2.54  18 2.54
                            31 2.56  14 2.58  61 2.59  63 2.63
  18  0.019  0.702  0.028-  52 2.47  46 2.48  14 2.50  31 2.52  17 2.54   8 2.55  40 2.56  35 2.56
                            54 2.61
  19  0.357  0.358  0.026-  44 2.50  11 2.51  69 2.53  70 2.55   6 2.57  39 2.57  54 2.63  36 2.66
                            56 2.76
  20  0.849  0.975  0.100-  71 2.48  31 2.51  42 2.51  33 2.52  37 2.53  17 2.53  45 2.53  49 2.54
                            61 2.55   5 2.57  47 2.59   3 2.62
  21  0.013  0.470  0.096-   6 2.48  34 2.50  68 2.50  36 2.51  27 2.52  54 2.54  66 2.57  40 2.57
                            14 2.58  52 2.62  44 2.64   9 2.65
  22  0.517  0.643  0.241-  25 2.45  15 2.47  10 2.48  23 2.50  16 2.52  67 2.55  59 2.57  24 2.58
                            43 2.63
  23  0.354  0.806  0.248-  65 2.48  22 2.50  63 2.54  10 2.56  25 2.58  67 2.59   2 2.61  64 2.64
                            32 2.65
  24  0.520  0.527  0.169-  15 2.45  50 2.54  16 2.56  44 2.57  60 2.58  22 2.58  25 2.59  34 2.60
                            66 2.62  58 2.66  68 2.66  59 2.66
  25  0.353  0.697  0.173-  22 2.45  32 2.46  67 2.51  63 2.53  23 2.58  24 2.59  28 2.60  58 2.60
                            16 2.61  26 2.61  68 2.63  52 2.67
  26  0.018  0.694  0.170-  43 2.48  17 2.50  34 2.52  68 2.53  52 2.54  16 2.56  63 2.59  67 2.59
                            14 2.60  25 2.61  61 2.64  64 2.75
  27  0.854  0.302  0.098-  71 2.50  50 2.50  33 2.52  21 2.52  48 2.53  36 2.53   6 2.54  70 2.54
                            51 2.55   9 2.59  66 2.60  11 2.63
  28  0.340  0.810  0.099-  46 2.43  58 2.47  62 2.48  17 2.52  52 2.52   5 2.52  32 2.55  47 2.56
                            25 2.60  35 2.60  63 2.63  42 2.74
  29  0.342  0.025  0.031-  46 2.45  41 2.50  49 2.50  47 2.50  39 2.51   5 2.51  62 2.51  69 2.52
                            45 2.64
  30  0.189  0.314  0.246-  57 2.44  59 2.47   1 2.54  60 2.55   9 2.56   4 2.61  55 2.63
  31  0.849  0.865  0.029-   8 2.46  42 2.46  45 2.48  49 2.49  20 2.51  18 2.52  62 2.56  17 2.56
                            46 2.62
  32  0.515  0.858  0.170-  65 2.45  25 2.46  61 2.52  47 2.53  16 2.54  28 2.55  63 2.56  42 2.57
                            10 2.60  37 2.60  12 2.63  23 2.65
  33  0.682  0.139  0.099-  11 2.48  39 2.49  45 2.50  20 2.52  47 2.52  27 2.52  37 2.54  51 2.54
                             7 2.56  71 2.57  48 2.57  41 2.60
  34  0.854  0.529  0.167-  15 2.43  21 2.50  50 2.51  14 2.51  26 2.52  16 2.52  68 2.53   1 2.56
                             9 2.58  24 2.60  43 2.61  66 2.62
  35  0.348  0.701  0.023-  46 2.50  58 2.52  62 2.56  18 2.56  28 2.60  52 2.61  54 2.64  56 2.65
                             8 2.67
  36  0.014  0.357  0.026-  21 2.51   6 2.53  69 2.53  27 2.53  51 2.54  70 2.57  54 2.57  40 2.66
                            19 2.66
  37  0.681  0.030  0.171-  38 2.45  65 2.48  61 2.49  20 2.53   7 2.53  47 2.53  48 2.53  33 2.54
                            12 2.58   3 2.60  32 2.60  13 2.64
  38  0.677  0.132  0.243-  55 2.45  37 2.45  13 2.48  65 2.50  53 2.50   7 2.52  48 2.54  57 2.58

  39  0.515  0.186  0.028-  45 2.47  33 2.49  11 2.50  29 2.51  70 2.52  41 2.52  69 2.54  19 2.57
                            51 2.65
  40  0.853  0.535  0.024-  14 2.50  56 2.50  54 2.52  66 2.53   8 2.54  18 2.56  21 2.57  36 2.66
                            70 2.77
  41  0.348  0.139  0.100-  11 2.48  29 2.50  69 2.50   5 2.52  39 2.52  47 2.52  12 2.54   7 2.59
                             6 2.59   4 2.59  33 2.60  71 2.61
  42  0.692  0.807  0.099-  62 2.45  31 2.46  20 2.51  14 2.51  58 2.52   8 2.52  17 2.53  61 2.55
                            16 2.55  32 2.57  47 2.59  28 2.74
  43  0.856  0.643  0.241-  15 2.40  26 2.48  16 2.51  10 2.51   1 2.52  64 2.54  67 2.60  34 2.61
                            22 2.63
  44  0.353  0.474  0.095-  19 2.50  68 2.55   6 2.55  54 2.56  66 2.56  24 2.57  58 2.61  11 2.61
                            52 2.62  21 2.64  60 2.68  56 2.99
  45  0.681  0.026  0.029-  62 2.45  39 2.47  31 2.48  33 2.50  47 2.51  51 2.52  20 2.53  29 2.64
                            49 2.65
  46  0.185  0.864  0.030-  28 2.43  29 2.45  49 2.48  18 2.48  35 2.50  17 2.54   5 2.57  62 2.61
                            31 2.62
  47  0.515  0.975  0.100-  62 2.43  29 2.50  45 2.51  33 2.52  41 2.52  37 2.53  32 2.53  28 2.56
                            12 2.58  20 2.59  42 2.59   5 2.62
  48  0.840  0.198  0.172-  50 2.46  55 2.47   7 2.48   9 2.50  27 2.53  37 2.53  38 2.54  33 2.57
                            71 2.58   3 2.60   4 2.60
  49  0.021  0.025  0.029-  46 2.48  51 2.49  31 2.49  29 2.50  71 2.53   5 2.53  20 2.54  69 2.57
                            45 2.65
  50  0.694  0.363  0.169-  48 2.46  53 2.46   9 2.50  27 2.50  34 2.51  24 2.54   7 2.55  15 2.56
                            66 2.60  11 2.60  60 2.63
  51  0.856  0.187  0.027-  49 2.49  70 2.51  45 2.52  71 2.53  33 2.54  36 2.54  27 2.55  69 2.59
                            39 2.65
  52  0.178  0.644  0.097-  18 2.47  28 2.52  68 2.52  17 2.52  26 2.54  14 2.55  58 2.56  54 2.58
                            35 2.61  44 2.62  21 2.62  25 2.67
  53  0.590  0.315  0.247-  15 2.42  50 2.46  38 2.50  59 2.68   7 2.70  57 2.85  60 2.87
[...]
  Total     -27.07460    -2.20878    -1.51881     0.83921    -0.26885     0.25952
  in kB     -14.76018    -1.20416    -0.82801     0.45751    -0.14657     0.14148

 VOLUME and BASIS-vectors are now :
  energy-cutoff  :      450.00
  volume of cell :     2938.87
      direct lattice vectors                 reciprocal lattice vectors
     7.778498173  0.000000000  0.000000000     0.128559521  0.000000000  0.000000000
     0.000000000 13.137704849  0.000000000     0.000000000  0.076116796  0.000000000
     0.000000000  0.000000000 28.758470535     0.000000000  0.000000000  0.034772364

  length of vectors
     7.778498173 13.137704849 28.758470535     0.128559521  0.076116796  0.034772364

 FORCES acting on ions
    electron-ion (+dipol)            ewald-force                    non-local-force                 convergence-correction
   -.125E+03 0.154E+02 -.313E+04   0.126E+03 -.144E+02 0.313E+04   -.836E+00 -.997E+00 0.534E+00   0.319E-02 0.254E-02 -.164E-01
   -.170E+02 0.173E+03 -.323E+04   0.173E+02 -.172E+03 0.323E+04   -.303E+00 -.932E+00 -.232E+01   -.548E-02 -.163E-01 -.348E-01
   -.156E+02 0.135E+03 -.118E+04   0.158E+02 -.135E+03 0.118E+04   -.193E+00 -.487E+00 0.309E+00   0.139E-02 -.286E-01 -.863E-01
   -.712E+01 -.105E+03 -.106E+04   0.677E+01 0.105E+03 0.106E+04   0.345E+00 0.453E+00 -.643E-01   0.506E-02 -.152E-01 -.744E-01
   0.414E+02 -.323E+02 0.804E+03   -.408E+02 0.316E+02 -.804E+03   -.585E+00 0.667E+00 0.262E+00   -.553E-02 -.168E-01 -.811E-01
   -.244E+02 0.432E+02 0.956E+03   0.243E+02 -.433E+02 -.956E+03   0.119E+00 0.921E-01 0.127E+00   -.343E-02 -.107E-01 -.812E-01
   0.673E+02 -.120E+03 -.111E+04   -.666E+02 0.119E+03 0.111E+04   -.678E+00 0.138E+01 0.430E+00   0.924E-03 -.114E-01 -.793E-01
   0.206E+02 -.841E+02 0.319E+04   -.197E+02 0.846E+02 -.319E+04   -.879E+00 -.523E+00 0.247E+00   0.113E-01 0.211E-01 -.143E-01
   -.756E+02 -.947E+02 -.128E+04   0.755E+02 0.944E+02 0.128E+04   0.731E-01 0.237E+00 0.181E+00   0.284E-03 0.681E-02 -.678E-01
   -.742E+02 -.295E+02 -.320E+04   0.745E+02 0.285E+02 0.320E+04   -.311E+00 0.992E+00 -.536E+00   0.799E-02 0.462E-02 -.441E-01
   0.454E+00 -.147E+03 0.102E+04   -.506E+00 0.146E+03 -.102E+04   0.478E-01 0.448E+00 -.103E+00   0.564E-02 -.134E-01 -.748E-01
   0.371E+02 0.103E+03 -.121E+04   -.369E+02 -.102E+03 0.121E+04   -.177E+00 -.908E+00 0.999E+00   -.565E-02 -.253E-01 -.959E-01
   0.288E+01 0.176E+03 -.323E+04   -.342E+01 -.176E+03 0.323E+04   0.533E+00 -.467E+00 -.112E+01   0.105E-01 -.136E-01 -.332E-01
   0.981E+01 0.862E+02 0.963E+03   -.958E+01 -.860E+02 -.963E+03   -.234E+00 -.176E+00 -.150E+00   0.575E-02 0.247E-01 -.713E-01
   0.116E+02 0.516E+02 -.309E+04   -.115E+02 -.494E+02 0.309E+04   -.167E+00 -.222E+01 -.513E+00   -.290E-04 -.726E-02 -.309E-01
   -.490E+02 -.232E+02 -.117E+04   0.490E+02 0.226E+02 0.117E+04   -.366E-01 0.579E+00 0.502E-01   0.384E-03 0.133E-01 -.912E-01
   -.704E+01 -.520E+02 0.727E+03   0.698E+01 0.520E+02 -.727E+03   0.607E-01 -.321E-02 0.343E+00   -.430E-02 0.121E-01 -.852E-01
   0.133E+02 -.440E+02 0.313E+04   -.134E+02 0.444E+02 -.313E+04   0.333E-01 -.478E+00 -.442E+00   -.599E-02 0.262E-01 -.147E-01
   -.413E+02 0.120E+03 0.310E+04   0.417E+02 -.119E+03 -.310E+04   -.323E+00 -.970E+00 0.197E+01   -.428E-02 -.577E-02 -.321E-01
   -.590E+02 -.295E+02 0.872E+03   0.584E+02 0.292E+02 -.872E+03   0.541E+00 0.351E+00 0.837E+00   -.229E-02 -.170E-01 -.892E-01
   0.292E+02 0.520E+02 0.919E+03   -.299E+02 -.521E+02 -.919E+03   0.725E+00 0.130E+00 -.971E-01   -.519E-02 0.197E-01 -.715E-01
   0.133E+03 0.992E+02 -.318E+04   -.133E+03 -.992E+02 0.318E+04   0.879E-01 0.557E-01 -.236E+00   -.536E-02 -.711E-02 -.328E-01
   0.132E+03 0.383E+02 -.326E+04   -.133E+03 -.391E+02 0.326E+04   0.817E+00 0.831E+00 -.607E+00   -.106E-01 0.218E-02 -.400E-01
   0.162E+03 0.126E+03 -.110E+04   -.162E+03 -.126E+03 0.110E+04   -.190E+00 -.370E+00 -.333E-01   0.509E-02 0.174E-01 -.694E-01
   0.166E+03 0.746E+02 -.131E+04   -.165E+03 -.750E+02 0.131E+04   -.601E+00 0.407E+00 0.580E+00   0.697E-03 0.148E-01 -.797E-01
   -.106E+03 -.544E+02 -.129E+04   0.105E+03 0.550E+02 0.129E+04   0.119E+01 -.635E+00 0.770E+00   0.102E-02 0.174E-01 -.879E-01
   0.121E+02 -.381E+02 0.105E+04   -.120E+02 0.385E+02 -.105E+04   -.109E+00 -.392E+00 -.114E+01   -.455E-02 -.122E-01 -.812E-01
   0.155E+02 -.677E+02 0.905E+03   -.168E+02 0.692E+02 -.904E+03   0.137E+01 -.151E+01 -.757E+00   -.301E-02 0.198E-01 -.702E-01
   0.579E+01 -.517E+02 0.312E+04   -.556E+01 0.518E+02 -.312E+04   -.232E+00 -.581E-01 0.689E+00   -.103E-02 -.128E-01 -.152E-01
   0.328E+02 -.243E+03 -.318E+04   -.337E+02 0.244E+03 0.318E+04   0.870E+00 -.103E+01 -.143E+01   0.334E-02 0.700E-02 -.159E-01
   0.310E+02 -.637E+02 0.314E+04   -.313E+02 0.638E+02 -.314E+04   0.283E+00 -.179E+00 -.946E+00   0.559E-02 0.113E-01 -.104E-01
   0.263E+02 -.153E+02 -.119E+04   -.266E+02 0.148E+02 0.119E+04   0.338E+00 0.542E+00 0.173E+01   -.500E-03 0.147E-03 -.969E-01
   -.665E+02 -.532E+02 0.103E+04   0.660E+02 0.528E+02 -.103E+04   0.486E+00 0.409E+00 0.181E-01   -.167E-02 -.290E-01 -.840E-01
   -.721E+02 0.530E+02 -.102E+04   0.719E+02 -.533E+02 0.102E+04   0.193E+00 0.271E+00 -.132E+00   -.352E-02 0.144E-01 -.826E-01
   -.265E+02 -.103E+03 0.324E+04   0.257E+02 0.103E+03 -.324E+04   0.771E+00 -.526E-01 0.166E+01   -.857E-02 0.203E-01 -.162E-01
   0.547E+02 0.134E+03 0.314E+04   -.546E+02 -.135E+03 -.315E+04   -.173E+00 0.787E+00 0.974E+00   -.193E-02 -.150E-02 -.254E-01
   -.267E+02 0.106E+03 -.116E+04   0.266E+02 -.105E+03 0.116E+04   0.147E+00 -.112E+01 0.145E+01   -.475E-03 -.198E-01 -.974E-01
   0.129E+02 -.149E+01 -.321E+04   -.136E+02 0.442E+00 0.321E+04   0.731E+00 0.105E+01 -.321E+01   0.126E-01 -.384E-02 -.226E-01
   0.320E+02 -.698E+02 0.317E+04   -.321E+02 0.696E+02 -.317E+04   0.285E-02 0.204E+00 -.737E+00   0.114E-02 -.266E-01 -.274E-01
   0.529E+02 0.155E+03 0.312E+04   -.529E+02 -.156E+03 -.312E+04   -.671E-02 0.742E+00 0.605E+00   0.478E-02 0.201E-01 -.221E-01
   0.114E+03 -.773E+02 0.100E+04   -.113E+03 0.771E+02 -.999E+03   -.528E+00 0.219E+00 -.528E+00   -.249E-02 -.305E-01 -.766E-01
   -.279E+01 -.649E+02 0.922E+03   0.396E+01 0.652E+02 -.921E+03   -.118E+01 -.375E+00 -.784E+00   0.612E-02 0.180E-01 -.731E-01
   -.155E+03 -.460E+02 -.318E+04   0.155E+03 0.462E+02 0.318E+04   -.328E+00 -.259E+00 -.474E+00   0.191E-02 0.102E-01 -.343E-01
   -.689E+02 0.874E+02 0.906E+03   0.690E+02 -.879E+02 -.907E+03   -.159E+00 0.556E+00 0.236E+00   -.437E-02 0.142E-01 -.669E-01
   0.161E+02 0.110E+01 0.317E+04   -.160E+02 -.388E+00 -.317E+04   -.505E-01 -.698E+00 -.935E+00   0.293E-02 -.993E-02 -.155E-01
   -.445E+02 -.693E+02 0.312E+04   0.447E+02 0.692E+02 -.312E+04   -.175E+00 0.102E+00 -.626E+00   -.126E-01 0.659E-02 -.102E-01
   0.175E+02 0.306E+02 0.960E+03   -.175E+02 -.295E+02 -.958E+03   0.453E-02 -.115E+01 -.120E+01   0.676E-03 -.586E-02 -.831E-01
   -.571E+02 -.890E+02 -.113E+04   0.566E+02 0.899E+02 0.113E+04   0.501E+00 -.874E+00 0.491E+00   -.335E-02 -.167E-01 -.760E-01
   -.257E+02 -.132E+03 0.310E+04   0.257E+02 0.132E+03 -.310E+04   -.166E-02 0.204E-01 0.209E+00   -.659E-02 -.178E-01 -.165E-01
   0.376E+02 -.803E+02 -.104E+04   -.371E+02 0.805E+02 0.104E+04   -.504E+00 -.124E+00 0.867E+00   -.650E-02 0.337E-02 -.742E-01
   -.610E+02 -.541E+02 0.314E+04   0.619E+02 0.532E+02 -.313E+04   -.916E+00 0.937E+00 -.537E+00   -.336E-02 -.251E-01 -.197E-01
   0.142E+01 0.655E+02 0.848E+03   -.240E+01 -.651E+02 -.848E+03   0.989E+00 -.339E+00 0.578E+00   -.914E-02 0.244E-01 -.703E-01
   -.263E+02 -.159E+03 -.421E+04   0.240E+02 0.159E+03 0.420E+04   0.228E+01 -.137E+00 0.530E+01   0.576E-02 0.120E-01 -.234E-01
   -.187E+02 0.982E+02 0.408E+04   0.189E+02 -.983E+02 -.407E+04   -.207E+00 0.723E-01 -.464E+01   -.770E-02 0.204E-01 -.323E-01
   0.262E+02 -.175E+03 -.421E+04   -.254E+02 0.173E+03 0.421E+04   -.749E+00 0.184E+01 0.513E+01   -.148E-01 -.764E-02 -.276E-01
   -.308E+02 0.190E+03 0.441E+04   0.315E+02 -.190E+03 -.440E+04   -.700E+00 0.303E+00 -.666E+01   0.451E-02 0.171E-01 -.181E-01
   -.342E+02 0.305E+01 -.421E+04   0.343E+02 -.351E+01 0.421E+04   -.152E+00 0.463E+00 0.439E+01   0.170E-02 -.557E-03 -.286E-01
   -.246E+02 0.165E+03 0.130E+04   0.247E+02 -.165E+03 -.130E+04   -.108E+00 0.143E+00 0.692E+00   0.568E-02 0.300E-01 -.872E-01
   0.709E+02 -.426E+02 -.190E+04   -.709E+02 0.426E+02 0.190E+04   -.275E-01 -.874E-01 0.353E+01   0.700E-03 0.173E-02 -.124E-01
   0.283E+02 -.108E+03 -.717E+03   -.283E+02 0.109E+03 0.718E+03   -.344E-01 -.570E+00 -.899E+00   0.382E-02 0.249E-02 -.387E-01
   -.831E+02 0.305E+02 -.771E+03   0.839E+02 -.308E+02 0.771E+03   -.820E+00 0.291E+00 -.338E+00   0.223E-02 0.160E-02 -.553E-01
   0.121E+02 -.289E+02 0.185E+04   -.118E+02 0.290E+02 -.185E+04   -.286E+00 -.608E-01 -.275E+01   0.270E-02 0.970E-02 -.989E-02
   0.639E+02 0.428E+02 -.826E+03   -.647E+02 -.430E+02 0.827E+03   0.890E+00 0.125E+00 -.446E+00   -.149E-02 0.278E-02 -.517E-01
   -.377E+02 0.625E+02 -.193E+04   0.377E+02 -.624E+02 0.193E+04   -.506E-01 -.390E-01 0.397E+01   0.339E-02 0.443E-02 -.168E-01
   0.153E+02 0.365E+02 -.188E+04   -.153E+02 -.363E+02 0.188E+04   -.503E-01 -.174E+00 0.243E+01   0.113E-03 -.414E-02 -.257E-01
   0.247E+02 0.585E+02 0.686E+03   -.249E+02 -.585E+02 -.687E+03   0.231E+00 -.561E-01 0.997E+00   0.446E-02 0.817E-02 -.391E-01
   0.876E+01 0.319E+02 -.188E+04   -.893E+01 -.318E+02 0.188E+04   0.176E+00 -.716E-01 0.221E+01   0.300E-02 0.254E-02 -.170E-01
   -.620E+02 0.380E+02 -.706E+03   0.622E+02 -.381E+02 0.706E+03   -.141E+00 0.789E-01 -.563E+00   0.213E-02 0.889E-02 -.435E-01
   0.256E+02 0.595E+01 0.186E+04   -.258E+02 -.561E+01 -.185E+04   0.184E+00 -.326E+00 -.339E+01   -.359E-03 -.130E-01 -.171E-01
   -.950E+01 -.966E+00 0.186E+04   0.901E+01 0.113E+01 -.185E+04   0.491E+00 -.156E+00 -.261E+01   0.870E-03 -.413E-02 -.154E-01
   -.320E+02 -.373E+02 0.596E+03   0.323E+02 0.375E+02 -.597E+03   -.294E+00 -.120E+00 0.621E+00   -.235E-02 -.177E-01 -.493E-01
   -.198E+01 0.330E+01 -.973E+00   -.782E-13 -.817E-12 -.682E-11   0.201E+01 -.335E+01 0.444E+01   -.192E-01 0.277E-01 -.347E+01

 POSITION                                       TOTAL-FORCE (eV/Angst)
      0.10214      6.25257      6.93648        -0.000365      0.000530      0.003702
      1.44104     12.84621      7.12008         0.006798     -0.000516     -0.001926
      0.11899      0.38777      5.04691        -0.000589     -0.004711      0.000014
      1.36148      2.58697      4.95757         0.001897      0.001597      0.004692
      1.39443     12.81975      2.94997        -0.002863     -0.001120      0.000458
      1.39939      4.06351      2.82903        -0.002967     -0.000800     -0.002301
      4.06108      2.59819      4.93670         0.000901     -0.001029      0.000222
      5.37600      9.23850      0.71396        -0.002188      0.001705      0.000527
      0.11270      4.70300      4.98200        -0.000039      0.001529     -0.000068
      5.30620     10.56815      7.03425         0.002312      0.000209     -0.007011
      4.01400      3.94036      2.80774         0.001256      0.000178      0.000373
      2.71949      0.42576      4.98540        -0.001021     -0.001391     -0.000055
      6.60401     12.78488      7.09469        -0.000612     -0.005909     -0.002482
      6.60905      8.41515      2.76408         0.000750      0.001621      0.003634
      5.40868      6.40239      6.82391         0.006740     -0.005410     -0.002350
      5.35466      9.11668      4.89906         0.001714     -0.001105      0.000142
      0.13123     10.63989      2.91413        -0.000528     -0.001272      0.000943
      0.14816      9.22914      0.79756        -0.001200      0.002782      0.000172
      2.77616      4.70433      0.75898        -0.002166      0.002147     -0.000966
      6.60066     12.80471      2.88815        -0.000929     -0.001600     -0.001156
      0.10066      6.16997      2.77054         0.000388      0.001470      0.001852
      4.02491      8.44879      6.93625         0.003030     -0.004585      0.000349
      2.75213     10.58934      7.13045         0.001546      0.001623     -0.006146
      4.04557      6.92305      4.85390         0.003684      0.003315     -0.000513
      2.74953      9.16345      4.97562         0.000859      0.000865      0.001676
      0.13620      9.11577      4.89613         0.000378     -0.000174      0.001143
      6.64303      3.96888      2.82980        -0.001701     -0.000660     -0.000432
      2.64626     10.63599      2.83505         0.002474      0.001932      0.002735
      2.66186      0.32667      0.87799        -0.003183      0.001033      0.001604
      1.47226      4.12104      7.06698         0.002445     -0.003272     -0.000117
      6.60069     11.36966      0.83367        -0.001369      0.003342      0.001847
      4.00802     11.27477      4.89479        -0.000275     -0.002102     -0.000613
      5.30711      1.82910      2.83333        -0.002290      0.001700      0.002567
      6.64004      6.94912      4.80263         0.000250     -0.000760      0.000220
      2.70601      9.20394      0.66146         0.000203      0.000283      0.001214
      0.11234      4.68406      0.74371        -0.002293      0.004216      0.003341
      5.29946      0.39474      4.92850        -0.002298     -0.000571     -0.001923
      5.26896      1.73552      6.97832         0.002778     -0.002256      0.000348
      4.00493      2.44281      0.80510        -0.002724      0.002219     -0.001206
      6.63264      7.02818      0.68902        -0.000164     -0.000314     -0.002185
      2.70699      1.82840      2.87316        -0.004650      0.000840      0.003332
      5.38592     10.60821      2.83443        -0.002885      0.001241      0.000751
      6.65905      8.45202      6.93328        -0.002799      0.000383     -0.003496
      2.74467      6.22366      2.74454        -0.003142      0.001824     -0.000746
      5.29662      0.33975      0.82568        -0.001313      0.004431     -0.000221
      1.43896     11.34510      0.85154        -0.000960      0.001460      0.004151
      4.00960     12.80617      2.87850        -0.003363      0.004649     -0.001776
      6.53707      2.60034      4.95212         0.000704     -0.000053      0.000880
      0.16424      0.33291      0.83540        -0.000826      0.003076     -0.000792
      5.39551      4.77141      4.84763         0.000406     -0.001731     -0.004828
      6.65547      2.46067      0.77191        -0.001775      0.003029      0.003704
      1.38438      8.45672      2.78684         0.000943      0.000028      0.003304
      4.59263      4.14322      7.09205         0.001049     -0.005900     -0.000769
      1.36858      6.92926      0.70781        -0.001172      0.001800     -0.000594
      7.70094      1.99829      7.04351         0.004515     -0.004728      0.000167
      4.16852      7.03038      0.24388        -0.001688      0.001146     -0.001446
      2.70608      2.01324      7.07536        -0.000999     -0.002710     -0.001397
      3.94438      8.53877      2.74873         0.000673     -0.001995      0.000968
      2.84979      6.17532      7.11362         0.001154     -0.002604     -0.000754
      2.76407      4.68581      4.94517         0.000390     -0.001519     -0.000048
      6.52556     11.36045      4.98436        -0.001367      0.000816     -0.002488
      4.04721     11.36729      0.92538        -0.002176      0.004933      0.000667
      1.45771     11.33102      5.07512         0.000358      0.000649     -0.001928
      0.11818     10.66263      7.16646         0.004052     -0.003784     -0.002127
      4.04474     12.69100      6.89050        -0.000099      0.001149     -0.000821
      5.30811      6.19160      2.67199         0.002767      0.001580      0.001137
      1.47679      8.33645      6.96945         0.006217     -0.005139      0.000304
      1.38873      6.91921      4.78336         0.001928     -0.000628      0.000389
      1.46330      2.54710      0.82587         0.000226      0.001268     -0.001274
      5.32439      4.58318      0.75142        -0.002027      0.001673      0.000833
      0.09496      1.79825      2.89161        -0.002783      0.000076      0.002597
    total drift:                                0.012055     -0.014534     -0.001256

  FREE ENERGIE OF THE ION-ELECTRON SYSTEM (eV)
  free  energy   TOTEN  =      -493.76584240 eV

  energy  without entropy=     -493.77103498  energy(sigma->0) =     -493.76714055

 d Force = 0.5338770E-04[ 0.437E-04, 0.631E-04]  d Energy = 0.5835408E-04-0.497E-05
 d Force =-0.4381940E+01[-0.438E+01,-0.438E+01]  d Ewald  =-0.4381939E+01-0.825E-06

 reached required accuracy - stopping structural energy minimisation