 vasp.5.4.1 05Feb16 (build Mar 19 2020 08:54:17) complex

 executed on           IFC91_ompi date 2021.12.19  09:28:11

 INCAR:
 POTCAR:   PAW_PBE Ni 06Sep2000
 POTCAR:    PAW_PBE Nb_sv 25May2007
 POTCAR:    PAW_PBE W 08Apr2002

 POTCAR:   PAW_PBE Ni 06Sep2000
   VRHFIN =Ni:

   TITEL  = PAW_PBE Ni 06Sep2000
   POMASS =   58.690; ZVAL   =   10.000    mass and valenz
   ENMAX  =  269.533; ENMIN  =  202.150 eV
   QCUT   =   -4.451; QGAM   =    8.902    optimization parameters

   Description
     l     E      TYP  RCUT    TYP  RCUT
     2   .000     23  2.300
     2   .000     23  2.300
     0   .000     23  2.300
     0   .000     23  2.300
     1  -.200     23  2.300
     1   .000     23  2.300
     3   .000      7   .000

 POTCAR:    PAW_PBE Nb_sv 25May2007
   VRHFIN =Nb: 4p5s4d

   TITEL  = PAW_PBE Nb_sv 25May2007
   POMASS =   92.910; ZVAL   =   13.000    mass and valenz
   ENMAX  =  293.235; ENMIN  =  219.927 eV

 POTCAR:    PAW_PBE W 08Apr2002
   VRHFIN =W : 6s5d

   TITEL  = PAW_PBE W 08Apr2002
   POMASS =  183.850; ZVAL   =    6.000    mass and valenz
   ENMAX  =  223.057; ENMIN  =  167.293 eV

 Optimization of the real space projectors (new method)

 maximal supplied QI-value         = 16.25
 optimisation between [QCUT,QGAM] = [ 12.51, 25.03] = [ 43.85,175.40] Ry
 Optimized for a Real-space Cutoff    1.31 Angstroem

   l    n(q)    QCUT    max X(q) W(low)/X(q) W(high)/X(q)  e(spline)
   2      9    12.514     4.811    0.56E-04    0.27E-04    0.54E-07
   2      9    12.514    15.146    0.50E-03    0.83E-03    0.65E-06
   0     10    12.514    14.357    0.12E-04    0.16E-04    0.90E-08
   0     10    12.514    43.282    0.85E-04    0.27E-03    0.25E-06
   1      9    12.514     5.514    0.64E-04    0.11E-04    0.56E-07
   1      9    12.514     7.697    0.40E-03    0.73E-04    0.27E-06
 Optimization of the real space projectors (new method)

[...]

   l    n(q)    QCUT    max X(q) W(low)/X(q) W(high)/X(q)  e(spline)
   0     12    12.548    10.201    0.21E-04    0.36E-05    0.83E-07
   0     12    12.548     8.174    0.31E-04    0.62E-05    0.15E-06
   1     11    12.548     3.488    0.79E-05    0.23E-04    0.21E-06
   1     11    12.548     4.917    0.56E-04    0.13E-03    0.11E-05
   2     11    12.548   153.744    0.25E-03    0.10E-03    0.15E-05
   2     11    12.548   126.342    0.25E-03    0.10E-03    0.15E-05
 Optimization of the real space projectors (new method)

 maximal supplied QI-value         = 13.61
 optimisation between [QCUT,QGAM] = [ 12.52, 25.04] = [ 43.88,175.51] Ry
 Optimized for a Real-space Cutoff    1.56 Angstroem

   l    n(q)    QCUT    max X(q) W(low)/X(q) W(high)/X(q)  e(spline)
   2     11    12.518   130.855    0.35E-03    0.25E-03    0.12E-05
   2     11    12.518   114.007    0.35E-03    0.25E-03    0.12E-05
   0     12    12.518    84.709    0.29E-04    0.97E-05    0.60E-06
   0     12    12.518    49.163    0.27E-04    0.89E-05    0.55E-06
   1     11    12.518    15.765    0.74E-04    0.89E-04    0.15E-06
   1     11    12.518    10.638    0.55E-04    0.69E-04    0.13E-06
 PAW_PBE Ni 06Sep2000                   :
  PAW_PBE Nb_sv 25May2007               :
  PAW_PBE W 08Apr2002                   :

 POSCAR: Ni Nb  W
  positions in direct lattice
  velocities in cartesian coordinates
 exchange correlation table for  LEXCH =        8
   RHO(1)=    0.500       N(1)  =     2000
   RHO(2)=  100.500       N(2)  =     4000

 ion  position               nearest neighbor table
   1  0.017  0.480  0.240-   6 2.46  31 2.47  44 2.50  16 2.52  67 2.52  35 2.53  68 2.57  10 2.57
                            59 2.65
   2  0.188  0.971  0.247-  63 2.48  24 2.53  64 2.53   3 2.55  13 2.59  65 2.59  14 2.68  56 2.71

   3  0.016  0.029  0.176-  14 2.52   4 2.53  61 2.55   2 2.55   5 2.57  63 2.57  49 2.58  71 2.58
                            13 2.59  38 2.59  21 2.64  56 2.66
   4  0.176  0.196  0.175-  10 2.50  13 2.51   3 2.53  60 2.53  31 2.54  71 2.57  49 2.59  42 2.62
                             8 2.67   7 2.67  56 2.75
   5  0.180  0.976  0.103-  71 2.48  30 2.51  29 2.52  42 2.52  18 2.53  13 2.53  50 2.54   3 2.57
                            47 2.57  21 2.57  63 2.59  48 2.62
   6  0.869  0.315  0.238-  10 2.41  54 2.42  31 2.45   1 2.46  49 2.47  51 2.49  56 2.51  16 2.60
                            39 2.77
   7  0.182  0.309  0.097-  22 2.49  10 2.50  69 2.50  37 2.52  45 2.53  28 2.56  20 2.56  60 2.57
                            42 2.57  71 2.61  12 2.62   4 2.67
   8  0.520  0.198  0.173-  60 2.44  51 2.51  39 2.51  49 2.52  38 2.52  13 2.53  12 2.56  42 2.60
                            34 2.61   4 2.67  54 2.75
   9  0.692  0.704  0.025-  32 2.46  43 2.52  62 2.52  15 2.53  19 2.54  41 2.55  57 2.56  58 2.59
                            36 2.67
  10  0.020  0.361  0.168-   6 2.41   4 2.50   7 2.50  28 2.53  31 2.53  68 2.54  22 2.54  35 2.56
                            49 2.57  51 2.57   1 2.57  60 2.62
  11  0.681  0.806  0.244-  23 2.46  65 2.50  24 2.51  44 2.51  61 2.52  14 2.54  64 2.56  17 2.57
                            33 2.59
  12  0.518  0.300  0.097-  34 2.47  42 2.48  40 2.49  70 2.51  20 2.54  60 2.55   8 2.56  66 2.59
                            51 2.60  28 2.61  45 2.61   7 2.62
  13  0.348  0.034  0.173-  65 2.45   4 2.51  42 2.52   8 2.53   5 2.53  63 2.58   3 2.59   2 2.59
                            48 2.60  38 2.60  33 2.63
  14  0.844  0.973  0.246-  39 2.50  64 2.51  56 2.52   3 2.52  65 2.53  11 2.54  61 2.54  38 2.61
                             2 2.68
  15  0.850  0.640  0.096-  41 2.49  19 2.51  43 2.51  35 2.51   9 2.53  53 2.56  17 2.57  22 2.57
                            66 2.58  18 2.58  27 2.60  58 2.66
  16  0.693  0.482  0.239-  44 2.42  54 2.45  25 2.47  35 2.48  23 2.52   1 2.52  51 2.56   6 2.60
                            59 2.62
  17  0.688  0.695  0.170-  44 2.50  23 2.51  35 2.53  43 2.53  61 2.54  27 2.55  33 2.55  25 2.56
                            15 2.57  11 2.57  26 2.60  58 2.63
  18  0.017  0.810  0.101-  53 2.51  27 2.52  29 2.52   5 2.53  43 2.53  21 2.53  47 2.54  19 2.54
                            32 2.57  61 2.58  15 2.58  63 2.62
  19  0.019  0.702  0.028-  53 2.46  47 2.48  15 2.51  32 2.52  18 2.54   9 2.54  41 2.56  36 2.57
                            55 2.61
  20  0.357  0.358  0.025-  45 2.51  69 2.53  12 2.54  70 2.55   7 2.56  40 2.58  55 2.63  37 2.67
                            57 2.76
  21  0.849  0.975  0.100-  71 2.49  32 2.50  34 2.51  43 2.52  61 2.52  46 2.52  50 2.53  18 2.53
                            38 2.53   5 2.57  48 2.59   3 2.64
  22  0.015  0.471  0.096-   7 2.49  68 2.50  37 2.52  55 2.53  35 2.53  10 2.54  28 2.55  41 2.55
                            66 2.57  15 2.57  53 2.61  45 2.64
  23  0.520  0.644  0.241-  26 2.45  11 2.46  24 2.49  17 2.51  16 2.52  59 2.52  44 2.56  25 2.57
                            67 2.59
  24  0.359  0.807  0.248-  23 2.49  65 2.49  11 2.51   2 2.53  67 2.53  63 2.55  26 2.59  33 2.64
                            64 2.72
  25  0.523  0.527  0.169-  16 2.47  51 2.54  17 2.56  35 2.56  23 2.57  60 2.59  26 2.60  59 2.60
                            45 2.61  66 2.62  58 2.67  68 2.67
  26  0.354  0.697  0.173-  23 2.45  33 2.48  63 2.52  67 2.52  24 2.59  29 2.60  25 2.60  68 2.60
                            17 2.60  58 2.61  27 2.63  53 2.68
  27  0.016  0.693  0.171-  44 2.50  35 2.51  68 2.51  18 2.52  17 2.55  53 2.56  67 2.57  63 2.59
                            15 2.60  26 2.63  61 2.66  64 2.71
  28  0.853  0.302  0.098-  71 2.50  34 2.51  10 2.53  70 2.53  52 2.53  49 2.54  37 2.54  51 2.55
                            22 2.55   7 2.56  66 2.57  12 2.61
  29  0.341  0.810  0.099-  47 2.43  62 2.47  58 2.48  53 2.51   5 2.52  18 2.52  33 2.54  48 2.57
                            26 2.60  36 2.60  63 2.62  43 2.73
  30  0.342  0.025  0.031-  47 2.45  48 2.49  50 2.50  40 2.51   5 2.51  62 2.51  42 2.51  69 2.52
                            46 2.64
  31  0.183  0.320  0.242-   6 2.45   1 2.47  59 2.48  60 2.51  10 2.53   4 2.54  56 2.78  54 2.95

  32  0.849  0.866  0.029-   9 2.46  43 2.46  46 2.48  50 2.49  21 2.50  19 2.52  62 2.56  18 2.57
                            47 2.62
  33  0.515  0.860  0.170-  65 2.45  26 2.48  48 2.52  61 2.52  29 2.54  63 2.55  17 2.55  43 2.57
                            11 2.59  38 2.61  13 2.63  24 2.64
  34  0.684  0.139  0.099-  12 2.47  40 2.49  46 2.51  28 2.51  21 2.51  38 2.51  48 2.51  52 2.54
                            49 2.55  71 2.58   8 2.61  42 2.62
  35  0.852  0.529  0.167-  16 2.48  27 2.51  15 2.51   1 2.53  17 2.53  22 2.53  68 2.55  51 2.55
                            10 2.56  25 2.56  66 2.59  44 2.60
  36  0.348  0.701  0.023-  47 2.49  58 2.52  62 2.56  19 2.57  53 2.60  29 2.60  55 2.64  57 2.65
                             9 2.67
  37  0.015  0.357  0.025-  22 2.52   7 2.52  69 2.53  28 2.54  52 2.54  70 2.57  55 2.58  41 2.66
                            20 2.67
  38  0.683  0.032  0.171-  65 2.46  39 2.49  49 2.49  61 2.50  34 2.51   8 2.52  48 2.53  21 2.53
                             3 2.59  13 2.60  14 2.61  33 2.61
  39  0.680  0.136  0.244-  56 2.47  38 2.49  14 2.50   8 2.51  65 2.52  54 2.54  49 2.55   6 2.77

  40  0.516  0.186  0.028-  46 2.46  34 2.49  12 2.49  30 2.51  70 2.52  42 2.53  69 2.55  20 2.58
                            52 2.65
  41  0.852  0.535  0.024-  15 2.49  57 2.50  55 2.52  66 2.54   9 2.55  22 2.55  19 2.56  37 2.66
                            70 2.76
  42  0.348  0.140  0.100-  12 2.48  30 2.51  69 2.52  13 2.52   5 2.52  40 2.53  48 2.53   7 2.57
                            71 2.59   8 2.60   4 2.62  34 2.62
  43  0.692  0.807  0.098-  62 2.45  32 2.46  15 2.51   9 2.52  21 2.52  18 2.53  58 2.53  17 2.53
                            61 2.53  33 2.57  48 2.60  29 2.73
  44  0.849  0.642  0.241-  16 2.42  27 2.50  17 2.50   1 2.50  11 2.51  64 2.54  23 2.56  35 2.60
                            67 2.63
  45  0.354  0.473  0.095-  20 2.51   7 2.53  68 2.54  55 2.56  66 2.58  58 2.60  25 2.61  12 2.61
                            53 2.63  22 2.64  60 2.65  57 2.97
  46  0.681  0.026  0.029-  62 2.45  40 2.46  32 2.48  34 2.51  48 2.51  52 2.52  21 2.52  30 2.64
                            50 2.64
  47  0.185  0.863  0.030-  29 2.43  30 2.45  19 2.48  50 2.48  36 2.49  18 2.54   5 2.57  62 2.61
                            32 2.62
  48  0.516  0.976  0.100-  62 2.43  30 2.49  46 2.51  34 2.51  33 2.52  42 2.53  38 2.53  29 2.57
                            21 2.59  13 2.60  43 2.60   5 2.62
  49  0.844  0.196  0.172-  51 2.47   6 2.47  38 2.49   8 2.52  28 2.54  71 2.54  34 2.55  39 2.55
                            10 2.57   3 2.58   4 2.59  56 2.71
  50  0.021  0.025  0.029-  47 2.48  52 2.49  32 2.49  30 2.50  21 2.53   5 2.54  71 2.55  69 2.57
                            46 2.64
  51  0.689  0.360  0.170-  49 2.47   6 2.49   8 2.51  25 2.54  28 2.55  35 2.55  16 2.56  10 2.57
                            60 2.59  12 2.60  66 2.61  54 2.62
  52  0.856  0.188  0.027-  50 2.49  70 2.51  46 2.52  28 2.53  34 2.54  37 2.54  71 2.56  69 2.59
                            40 2.65
[...]
  augment  2901.09035  2901.08523  2929.60973    -4.72872     0.54378    -0.31399
  Kinetic  6394.69786  6404.10235  6442.81485   -12.66967     1.30722    -2.20046
  Fock        0.00000     0.00000     0.00000     0.00000     0.00000     0.00000
  Total     -29.90316    -5.30319    -5.05284    -0.04446    -0.14630    -0.67127
  in kB     -16.30222    -2.89112    -2.75464    -0.02424    -0.07976    -0.36595

 VOLUME and BASIS-vectors are now :
  energy-cutoff  :      600.00
  volume of cell :     2938.87
      direct lattice vectors                 reciprocal lattice vectors
     7.778498173  0.000000000  0.000000000     0.128559521  0.000000000  0.000000000
     0.000000000 13.137704849  0.000000000     0.000000000  0.076116796  0.000000000
     0.000000000  0.000000000 28.758470535     0.000000000  0.000000000  0.034772364

  length of vectors
     7.778498173 13.137704849 28.758470535     0.128559521  0.076116796  0.034772364

 FORCES acting on ions
    electron-ion (+dipol)            ewald-force                    non-local-force                 convergence-correction
   -.213E+03 -.115E+03 -.309E+04   0.213E+03 0.115E+03 0.309E+04   0.574E-02 -.415E+00 -.748E+00   -.663E-04 0.212E-03 -.212E-03
   -.116E+03 -.254E+02 -.321E+04   0.117E+03 0.255E+02 0.321E+04   -.498E+00 0.411E+00 -.775E+00   0.750E-04 -.913E-04 -.194E-03
   -.767E+02 0.975E+02 -.127E+04   0.775E+02 -.961E+02 0.127E+04   -.779E+00 -.137E+01 -.325E+00   0.848E-05 -.300E-03 -.131E-03
   -.146E+03 0.142E+02 -.130E+04   0.146E+03 -.149E+02 0.130E+04   0.465E+00 0.333E+00 -.849E+00   0.143E-03 -.202E-03 -.456E-03
   0.322E+02 -.531E+02 0.748E+03   -.317E+02 0.524E+02 -.749E+03   -.457E+00 0.729E+00 0.465E+00   0.860E-04 -.293E-03 -.231E-03
   -.597E+02 -.287E+02 -.309E+04   0.610E+02 0.298E+02 0.309E+04   -.131E+01 -.117E+01 -.849E-01   0.508E-04 -.446E-04 -.599E-04
   -.430E+02 0.933E+02 0.970E+03   0.429E+02 -.933E+02 -.971E+03   0.171E+00 -.412E-01 0.188E+00   -.494E-04 0.364E-03 -.783E-03
   0.204E+03 -.145E+02 -.132E+04   -.203E+03 0.130E+02 0.132E+04   -.395E+00 0.145E+01 -.289E+00   -.118E-03 -.398E-03 -.399E-03
   0.225E+02 -.934E+02 0.318E+04   -.216E+02 0.939E+02 -.318E+04   -.828E+00 -.577E+00 0.154E+00   -.121E-04 -.381E-03 -.959E-04
   -.170E+03 -.556E+02 -.103E+04   0.170E+03 0.552E+02 0.103E+04   0.288E+00 0.336E+00 0.440E+00   0.933E-04 0.231E-03 -.854E-03
   -.661E+02 -.851E+02 -.318E+04   0.661E+02 0.846E+02 0.319E+04   -.928E-01 0.635E+00 -.688E+00   -.793E-04 0.200E-03 -.229E-03
   0.153E+02 -.109E+03 0.992E+03   -.152E+02 0.109E+03 -.992E+03   -.706E-01 0.406E+00 0.292E-01   -.116E-04 0.241E-03 -.881E-03
   0.339E+02 -.232E+02 -.140E+04   -.342E+02 0.244E+02 0.140E+04   0.337E+00 -.112E+01 0.957E+00   0.115E-03 -.220E-03 -.104E-03
   0.957E+01 0.156E+03 -.320E+04   -.102E+02 -.156E+03 0.320E+04   0.669E+00 0.125E-01 -.156E+01   -.139E-03 -.133E-03 -.159E-03
   0.857E+01 0.681E+02 0.956E+03   -.835E+01 -.679E+02 -.956E+03   -.212E+00 -.811E-01 -.181E+00   0.175E-03 -.256E-03 -.646E-03
   0.913E+02 -.458E+02 -.311E+04   -.912E+02 0.468E+02 0.311E+04   -.128E+00 -.119E+01 -.179E+00   -.893E-05 0.408E-03 -.169E-03
   -.429E+02 -.579E+02 -.116E+04   0.430E+02 0.573E+02 0.116E+04   -.223E-01 0.581E+00 0.426E-01   -.112E-03 0.308E-04 -.526E-03
   -.117E+02 -.765E+02 0.706E+03   0.116E+02 0.765E+02 -.707E+03   0.240E-01 -.188E-01 0.484E+00   0.188E-03 -.427E-03 -.440E-03
   0.120E+02 -.542E+02 0.312E+04   -.120E+02 0.547E+02 -.312E+04   -.161E-01 -.533E+00 -.481E+00   0.220E-03 -.462E-03 -.120E-04
   -.454E+02 0.134E+03 0.311E+04   0.458E+02 -.133E+03 -.311E+04   -.326E+00 -.949E+00 0.208E+01   -.937E-05 0.344E-03 -.279E-03
   -.614E+02 -.406E+02 0.847E+03   0.609E+02 0.405E+02 -.848E+03   0.502E+00 0.171E+00 0.984E+00   -.103E-04 -.198E-03 -.174E-03
   0.267E+02 0.496E+02 0.952E+03   -.274E+02 -.499E+02 -.952E+03   0.692E+00 0.258E+00 -.233E+00   0.603E-04 0.347E-03 -.967E-03
   0.146E+03 0.699E+02 -.318E+04   -.146E+03 -.699E+02 0.318E+04   -.161E-01 -.455E-01 -.437E+00   0.513E-04 0.260E-03 -.258E-03
   0.131E+03 -.326E+02 -.326E+04   -.131E+03 0.323E+02 0.326E+04   0.760E+00 0.376E+00 -.837E+00   0.111E-03 0.151E-03 -.278E-03
   0.178E+03 0.121E+03 -.110E+04   -.177E+03 -.121E+03 0.110E+04   -.253E+00 -.540E+00 -.328E-01   0.476E-05 0.401E-03 -.755E-03
   0.166E+03 0.418E+02 -.132E+04   -.166E+03 -.420E+02 0.131E+04   -.588E+00 0.170E+00 0.378E+00   0.545E-04 0.126E-03 -.652E-03
   -.116E+03 -.924E+02 -.130E+04   0.115E+03 0.930E+02 0.130E+04   0.127E+01 -.709E+00 0.815E+00   0.688E-04 0.816E-04 -.775E-03
   0.181E+02 -.869E+01 0.107E+04   -.180E+02 0.883E+01 -.107E+04   -.110E+00 -.162E+00 -.121E+01   0.653E-04 0.417E-03 -.877E-03
   0.155E+02 -.940E+02 0.881E+03   -.169E+02 0.954E+02 -.881E+03   0.135E+01 -.138E+01 -.743E+00   -.139E-03 -.459E-03 -.432E-03
   0.679E+01 -.554E+02 0.308E+04   -.653E+01 0.554E+02 -.308E+04   -.255E+00 0.208E-01 0.722E+00   -.110E-05 0.300E-04 -.323E-03
   -.241E+03 0.362E+02 -.312E+04   0.242E+03 -.373E+02 0.312E+04   -.437E+00 0.746E+00 -.523E+00   0.333E-04 -.114E-03 -.133E-03
   0.300E+02 -.736E+02 0.312E+04   -.304E+02 0.739E+02 -.312E+04   0.325E+00 -.194E+00 -.925E+00   0.991E-04 -.390E-03 -.239E-03
   0.399E+02 -.732E+02 -.120E+04   -.401E+02 0.726E+02 0.120E+04   0.265E+00 0.654E+00 0.159E+01   -.724E-04 -.371E-04 -.209E-03
   -.425E+02 -.360E+02 0.981E+03   0.422E+02 0.356E+02 -.981E+03   0.321E+00 0.522E+00 -.175E-01   -.108E-03 0.813E-04 -.417E-03
   -.567E+02 0.152E+02 -.992E+03   0.567E+02 -.153E+02 0.992E+03   0.498E-01 0.863E-01 -.304E+00   0.217E-04 0.260E-03 -.861E-03
   -.270E+02 -.115E+03 0.322E+04   0.263E+02 0.115E+03 -.323E+04   0.809E+00 -.103E+00 0.163E+01   -.191E-03 -.378E-03 -.311E-05
   0.550E+02 0.145E+03 0.314E+04   -.549E+02 -.146E+03 -.314E+04   -.152E+00 0.816E+00 0.964E+00   -.938E-05 0.524E-03 -.220E-03
   0.337E+02 0.815E+02 -.121E+04   -.341E+02 -.801E+02 0.121E+04   0.307E+00 -.145E+01 0.140E+01   -.131E-03 -.249E-03 -.440E-04
   0.278E+03 0.888E+02 -.321E+04   -.278E+03 -.901E+02 0.321E+04   0.262E+00 0.150E+01 -.172E+01   -.120E-03 -.607E-03 -.110E-03
   0.367E+02 -.570E+02 0.314E+04   -.368E+02 0.568E+02 -.314E+04   0.512E-01 0.163E+00 -.700E+00   -.635E-04 0.385E-03 -.356E-03
   0.550E+02 0.153E+03 0.310E+04   -.548E+02 -.153E+03 -.310E+04   -.814E-01 0.748E+00 0.632E+00   0.171E-03 -.146E-03 -.105E-03
   0.111E+03 -.607E+02 0.907E+03   -.110E+03 0.605E+02 -.906E+03   -.531E+00 0.177E+00 -.609E+00   0.129E-04 0.988E-04 -.470E-03
   0.146E+01 -.906E+02 0.909E+03   -.336E+00 0.909E+02 -.909E+03   -.112E+01 -.290E+00 -.791E+00   -.352E-04 -.356E-03 -.359E-03
   -.153E+03 -.909E+02 -.318E+04   0.153E+03 0.913E+02 0.318E+04   -.259E+00 -.446E+00 -.526E+00   -.175E-03 0.191E-03 -.249E-03
   -.775E+02 0.936E+02 0.915E+03   0.777E+02 -.940E+02 -.915E+03   -.186E+00 0.445E+00 0.514E+00   -.186E-03 0.369E-03 -.900E-03
   0.202E+02 -.129E+01 0.314E+04   -.202E+02 0.195E+01 -.314E+04   0.107E-01 -.633E+00 -.979E+00   -.140E-03 0.684E-05 -.285E-03
   -.460E+02 -.825E+02 0.309E+04   0.462E+02 0.825E+02 -.309E+04   -.237E+00 0.782E-01 -.707E+00   0.690E-04 -.462E-03 -.177E-03
   0.295E+02 0.950E+01 0.911E+03   -.296E+02 -.834E+01 -.910E+03   0.306E-01 -.117E+01 -.112E+01   -.695E-04 -.165E-03 -.174E-03
   -.597E+02 0.506E+02 -.107E+04   0.598E+02 -.505E+02 0.108E+04   0.246E-01 -.259E+00 -.546E+00   -.285E-04 -.300E-03 -.469E-03
   -.312E+02 -.134E+03 0.307E+04   0.312E+02 0.135E+03 -.307E+04   0.282E-01 -.970E-01 0.614E-01   0.151E-03 -.103E-03 -.293E-03
   0.142E+03 -.550E+02 -.995E+03   -.142E+03 0.550E+02 0.995E+03   -.282E+00 0.700E-02 0.730E-01   0.899E-05 0.236E-03 -.766E-03
   -.623E+02 -.389E+02 0.311E+04   0.633E+02 0.380E+02 -.311E+04   -.968E+00 0.904E+00 -.674E+00   -.782E-04 0.534E-03 -.283E-03
   -.219E+01 0.473E+02 0.852E+03   0.126E+01 -.467E+02 -.853E+03   0.930E+00 -.516E+00 0.853E+00   0.257E-04 -.146E-03 -.759E-03
   0.361E+03 0.760E+02 -.431E+04   -.360E+03 -.747E+02 0.430E+04   -.169E+01 -.206E+01 0.612E+01   -.651E-04 -.214E-03 0.286E-04
   -.192E+02 0.934E+02 0.409E+04   0.194E+02 -.934E+02 -.408E+04   -.200E+00 0.693E-01 -.467E+01   -.715E-04 0.101E-03 -.414E-04
   -.305E+03 0.325E+02 -.437E+04   0.302E+03 -.325E+02 0.436E+04   0.289E+01 0.322E+00 0.606E+01   0.933E-05 -.558E-03 -.203E-04
   -.326E+02 0.189E+03 0.439E+04   0.333E+02 -.189E+03 -.438E+04   -.706E+00 0.302E+00 -.650E+01   -.734E-04 -.144E-03 0.374E-04
   -.188E+02 0.147E+03 0.129E+04   0.190E+02 -.147E+03 -.129E+04   -.144E+00 0.175E+00 0.746E+00   -.258E-03 -.164E-03 -.760E-03
   0.637E+02 -.186E+02 -.188E+04   -.637E+02 0.183E+02 0.187E+04   0.337E-01 0.340E+00 0.316E+01   0.425E-04 0.188E-03 -.995E-04
   0.191E+02 -.449E+02 -.711E+03   -.192E+02 0.452E+02 0.712E+03   0.345E-01 -.284E+00 -.897E+00   -.558E-04 0.551E-04 -.450E-03
   -.825E+02 0.881E+01 -.765E+03   0.833E+02 -.906E+01 0.765E+03   -.775E+00 0.145E+00 -.292E+00   -.240E-04 -.641E-05 -.120E-03
   0.132E+02 -.364E+02 0.184E+04   -.130E+02 0.365E+02 -.184E+04   -.282E+00 -.470E-01 -.279E+01   -.946E-04 -.235E-03 -.119E-03
   0.568E+02 0.709E+01 -.836E+03   -.577E+02 -.718E+01 0.836E+03   0.887E+00 0.134E+00 -.402E+00   0.534E-04 -.450E-04 -.210E-03
   -.483E+02 0.246E+02 -.193E+04   0.482E+02 -.244E+02 0.192E+04   0.191E-01 0.344E-01 0.366E+01   -.242E-04 0.155E-03 -.131E-03
   0.747E+02 -.693E+02 -.188E+04   -.738E+02 0.684E+02 0.188E+04   -.111E+01 0.112E+01 0.279E+01   0.414E-04 -.227E-04 -.145E-03
   0.332E+02 0.591E+02 0.670E+03   -.335E+02 -.591E+02 -.671E+03   0.321E+00 -.120E-01 0.928E+00   0.678E-04 0.161E-03 -.540E-03
   0.580E+01 0.137E+02 -.190E+04   -.605E+01 -.137E+02 0.190E+04   0.234E+00 -.103E+00 0.251E+01   0.733E-04 0.145E-03 -.159E-03
   -.745E+02 0.271E+02 -.683E+03   0.747E+02 -.274E+02 0.684E+03   -.189E+00 0.220E+00 -.585E+00   -.117E-04 0.161E-03 -.578E-03
   0.235E+02 0.164E+02 0.185E+04   -.237E+02 -.161E+02 -.184E+04   0.176E+00 -.358E+00 -.342E+01   0.814E-04 0.222E-03 -.170E-03
   -.730E+01 0.553E+01 0.185E+04   0.681E+01 -.534E+01 -.185E+04   0.472E+00 -.148E+00 -.273E+01   0.888E-05 0.238E-03 -.180E-03
   -.432E+02 -.235E+02 0.557E+03   0.435E+02 0.236E+02 -.558E+03   -.252E+00 -.507E-01 0.669E+00   0.492E-04 0.857E-04 -.248E-03
   0.969E+00 0.290E+01 -.874E-01   -.192E-12 0.462E-13 -.330E-11   -.957E+00 -.293E+01 0.382E-01   -.251E-03 -.664E-03 -.241E-01

 POSITION                                       TOTAL-FORCE (eV/Angst)
      0.13051      6.30989      6.88885         0.029935     -0.102948     -0.002208
      1.46393     12.75070      7.09925        -0.081408      0.511832      0.070450
      0.12247      0.38151      5.06987        -0.021284      0.070710      0.140370
      1.37286      2.57611      5.01877         0.172619     -0.310601      0.205622
      1.40131     12.82155      2.95491        -0.000308      0.030431      0.029598
      6.75905      4.13215      6.85451        -0.014798     -0.098772      0.233167
      1.41457      4.06383      2.79719         0.041101     -0.012670     -0.037942
      4.04352      2.59747      4.98234        -0.044910     -0.034580      0.280062
      5.38075      9.24278      0.71169         0.001289     -0.013162      0.001948
      0.15415      4.74692      4.84268         0.033204     -0.005670     -0.018069
      5.29800     10.58493      7.00611        -0.092272      0.145560     -0.052809
      4.02729      3.93666      2.80194         0.021158     -0.035232      0.028157
      2.70797      0.44624      4.98752         0.042508     -0.002860      0.272732
      6.56477     12.78025      7.07753         0.031120      0.165670      0.200104
      6.60979      8.41264      2.76411         0.007605      0.058161     -0.014769
      5.39292      6.33872      6.87221        -0.046183     -0.219450      0.055493
      5.35544      9.13070      4.88598        -0.003313     -0.006784      0.011754
      0.13274     10.63634      2.91101        -0.002382     -0.008210      0.008758
      0.14422      9.22923      0.79266        -0.000661     -0.015987     -0.023738
      2.77871      4.70328      0.72574         0.051987     -0.001629      0.058333
      6.60748     12.80969      2.87584         0.016174      0.006655      0.001169
      0.11461      6.18628      2.75108        -0.021693      0.029280     -0.037401
      4.04810      8.46407      6.92500         0.072535     -0.043052     -0.009956
      2.78971     10.60152      7.12613         0.110695      0.080662     -0.020322
      4.06683      6.92322      4.87280         0.002089     -0.004914     -0.036853
      2.75326      9.16268      4.97152         0.027053     -0.029845     -0.020787
      0.12645      9.10849      4.91216        -0.030154     -0.017271     -0.021330
      6.63818      3.96691      2.81648        -0.008742     -0.020860     -0.038133
      2.65531     10.63517      2.83430         0.024958      0.023148      0.018539
      2.66192      0.32919      0.88456        -0.000953      0.009929     -0.000862
      1.42715      4.21048      6.96085        -0.071483     -0.354898      0.006970
      6.60150     11.37216      0.82930         0.010204      0.010142     -0.018442
      4.00385     11.29695      4.88232         0.037369      0.067486      0.171491
      5.32098      1.83034      2.83911        -0.033331      0.104929      0.035600
      6.62917      6.94935      4.80779         0.006530      0.010984     -0.007617
      2.70894      9.20606      0.66071         0.012811      0.004450     -0.022013
      0.11363      4.68562      0.72988        -0.009780     -0.011153     -0.010033
      5.31128      0.42167      4.92116        -0.093823     -0.025310     -0.005123
      5.28953      1.78620      7.00835         0.120892      0.215688     -0.196764
      4.01180      2.43913      0.81050        -0.058691     -0.023399      0.002647
      6.62988      7.02267      0.69623         0.025348     -0.025140      0.024117
      2.70372      1.84441      2.88961         0.022054     -0.003662      0.045311
      5.38517     10.60422      2.82717        -0.004225      0.039277     -0.017287
      6.60393      8.43813      6.93445         0.092763      0.028930      0.012062
      2.75075      6.21700      2.72905        -0.026220      0.014808     -0.031258
      5.29931      0.33988      0.82306        -0.001500      0.021174      0.013597
      1.44012     11.34383      0.85416        -0.010310      0.015094     -0.017531
      4.01668     12.81922      2.87630         0.024331     -0.014652      0.013088
      6.56163      2.58021      4.94083         0.143880     -0.144989      0.332342
      0.16465      0.33401      0.83661         0.007255      0.061105      0.047122
      5.35901      4.73376      4.88350        -0.049751     -0.006892      0.118171
      6.65773      2.46519      0.77459         0.036378     -0.030658      0.066797
      1.38750      8.46756      2.77258        -0.004663      0.031805      0.030121
      4.36645      4.14331      7.23774        -0.736571     -0.726869     -0.421336
      1.37429      6.93127      0.68822        -0.001199      0.006251     -0.008515
      7.74105      1.86410      7.27036         0.550886      0.270978     -1.304485
      4.17387      7.03491      0.25378        -0.012916     -0.033177     -0.006141
      3.95023      8.52327      2.74364         0.012286      0.023629     -0.021614
      2.77606      6.28953      7.04222         0.011182      0.067426      0.107363
      2.76953      4.67868      4.88675        -0.060812     -0.003465      0.079654
      6.52508     11.37964      4.95330         0.020780     -0.104404      0.000695
      4.04507     11.36964      0.92515        -0.020215      0.030120     -0.030259
      1.46113     11.32147      5.06855         0.009205      0.049986     -0.092706
      0.07502     10.63344      7.15632        -0.029968      0.169939      0.017343
      4.04172     12.73899      6.86204        -0.230457      0.234473     -0.310574
      5.32598      6.17665      2.70407         0.020305      0.005929     -0.060406
      1.45844      8.45288      7.01460        -0.014595     -0.166312     -0.019075
      1.40356      6.95120      4.75147        -0.010225     -0.022458     -0.009907
      1.46838      2.54604      0.81071        -0.044489     -0.061143      0.085806
      5.32330      4.58808      0.74783        -0.015614      0.044634     -0.064229
      0.11710      1.80406      2.91887         0.059409      0.081806      0.183939
    total drift:                                0.012256     -0.035601     -0.073326

  FREE ENERGIE OF THE ION-ELECTRON SYSTEM (eV)
  free  energy   TOTEN  =      -488.94414297 eV

  energy  without entropy=     -488.93353933  energy(sigma->0) =     -488.94149206