 vasp.5.4.1 05Feb16 (build Mar 19 2020 08:54:17) complex

 executed on           IFC91_ompi date 2022.01.25  13:16:30

 INCAR:
 POTCAR:    PAW_PBE W 08Apr2002

 POTCAR:    PAW_PBE W 08Apr2002
   VRHFIN =W : 6s5d

   TITEL  = PAW_PBE W 08Apr2002
   POMASS =  183.850; ZVAL   =    6.000    mass and valenz
   ENMAX  =  223.057; ENMIN  =  167.293 eV

 Optimization of the real space projectors (new method)

 maximal supplied QI-value         = 13.61
 optimisation between [QCUT,QGAM] = [ 10.75, 21.63] = [ 32.35,131.06] Ry
 Optimized for a Real-space Cutoff    1.65 Angstroem

   l    n(q)    QCUT    max X(q) W(low)/X(q) W(high)/X(q)  e(spline)
   2     10    10.749   130.855    0.24E-03    0.22E-03    0.39E-06
   2     10    10.749   114.007    0.24E-03    0.22E-03    0.39E-06
   0     11    10.749    84.709    0.32E-04    0.10E-04    0.34E-06
   0     11    10.749    49.163    0.26E-04    0.89E-05    0.31E-06
   1     10    10.749    15.765    0.14E-03    0.94E-05    0.22E-06
   1     10    10.749    10.638    0.10E-03    0.52E-05    0.16E-06
  PAW_PBE W 08Apr2002                   :

 POSCAR: W Cell
  positions in direct lattice
 exchange correlation table for  LEXCH =        8
   RHO(1)=    0.500       N(1)  =     2000
   RHO(2)=  100.500       N(2)  =     4000

 ion  position               nearest neighbor table
   1  0.000  0.000  0.000-   2 2.74   2 2.74   2 2.74   2 2.74   2 2.74   2 2.74   2 2.74   2 2.74

   2  0.500  0.500  0.500-   1 2.74   1 2.74   1 2.74   1 2.74   1 2.74   1 2.74   1 2.74   1 2.74

  LATTYP: Found a simple cubic cell.
 ALAT       =     3.1600000000

  Lattice vectors:

 A1 = (   3.1600000000,   0.0000000000,   0.0000000000)
 A2 = (   0.0000000000,   3.1600000000,   0.0000000000)
 A3 = (   0.0000000000,   0.0000000000,   3.1600000000)

Analysis of symmetry for initial positions (statically):
 Subroutine PRICEL returns following result:

  LATTYP: Found a body centered cubic cell.
 ALAT       =     3.1600000000

[...]

   2 primitive cells build up your supercell.

 Routine SETGRP: Setting up the symmetry group for a
 simple cubic supercell.

 Subroutine GETGRP returns: Found 48 space group operations
 (whereof 48 operations were pure point group operations)
 out of a pool of 48 trial point group operations.

The static configuration has the point symmetry O_h .

Analysis of symmetry for dynamics (positions and initial velocities):
 Subroutine PRICEL returns following result:

[...]

The dynamic configuration has the point symmetry O_h .

Analysis of structural, dynamic, and magnetic symmetry:
 Subroutine PRICEL returns following result:

  LATTYP: Found a body centered cubic cell.
 ALAT       =     3.1600000000

  Lattice vectors:

 A1 = (   1.5800000000,   1.5800000000,   1.5800000000)
 A2 = (   1.5800000000,  -1.5800000000,  -1.5800000000)
 A3 = (  -1.5800000000,   1.5800000000,  -1.5800000000)

   2 primitive cells build up your supercell.

 Routine SETGRP: Setting up the symmetry group for a
 simple cubic supercell.

 Subroutine GETGRP returns: Found 48 space group operations
 (whereof 48 operations were pure point group operations)
 out of a pool of 48 trial point group operations.

The magnetic configuration has the point symmetry O_h .

 Subroutine INISYM returns: Found 48 space group operations
 (whereof 48 operations are pure point group operations),
 and found     2 'primitive' translations

 KPOINTS: k-points

Automatic generation of k-mesh.
Space group operators:
 irot       det(A)        alpha          n_x          n_y          n_z        tau_x        tau_y        tau_z
    1     1.000000     0.000000     1.000000     0.000000     0.000000     0.000000     0.000000     0.000000
    2    -1.000000     0.000000     1.000000     0.000000     0.000000     0.000000     0.000000     0.000000
    3     1.000000   120.000000    -0.577350    -0.577350    -0.577350     0.000000     0.000000     0.000000
    4    -1.000000   120.000000    -0.577350    -0.577350    -0.577350     0.000000     0.000000     0.000000
    5     1.000000   120.000000     0.577350     0.577350     0.577350     0.000000     0.000000     0.000000
    6    -1.000000   120.000000     0.577350     0.577350     0.577350     0.000000     0.000000     0.000000
    7     1.000000    90.000000     0.000000     0.000000    -1.000000     0.000000     0.000000     0.000000
    8    -1.000000    90.000000     0.000000     0.000000    -1.000000     0.000000     0.000000     0.000000
    9     1.000000   180.000000     0.000000     0.707107     0.707107     0.000000     0.000000     0.000000
   10    -1.000000   180.000000     0.000000     0.707107     0.707107     0.000000     0.000000     0.000000
   11     1.000000    90.000000     0.000000     1.000000     0.000000     0.000000     0.000000     0.000000
   12    -1.000000    90.000000     0.000000     1.000000     0.000000     0.000000     0.000000     0.000000
   13     1.000000   180.000000     0.000000     0.000000     1.000000     0.000000     0.000000     0.000000
   14    -1.000000   180.000000     0.000000     0.000000     1.000000     0.000000     0.000000     0.000000
   15     1.000000   120.000000    -0.577350     0.577350     0.577350     0.000000     0.000000     0.000000
   16    -1.000000   120.000000    -0.577350     0.577350     0.577350     0.000000     0.000000     0.000000
   17     1.000000   120.000000    -0.577350     0.577350    -0.577350     0.000000     0.000000     0.000000
   18    -1.000000   120.000000    -0.577350     0.577350    -0.577350     0.000000     0.000000     0.000000
   19     1.000000    90.000000     0.000000     0.000000     1.000000     0.000000     0.000000     0.000000
   20    -1.000000    90.000000     0.000000     0.000000     1.000000     0.000000     0.000000     0.000000
   21     1.000000    90.000000    -1.000000     0.000000     0.000000     0.000000     0.000000     0.000000
   22    -1.000000    90.000000    -1.000000     0.000000     0.000000     0.000000     0.000000     0.000000
   23     1.000000   180.000000     0.707107     0.000000     0.707107     0.000000     0.000000     0.000000
   24    -1.000000   180.000000     0.707107     0.000000     0.707107     0.000000     0.000000     0.000000
   25     1.000000   120.000000     0.577350    -0.577350     0.577350     0.000000     0.000000     0.000000
   26    -1.000000   120.000000     0.577350    -0.577350     0.577350     0.000000     0.000000     0.000000
   27     1.000000   120.000000    -0.577350    -0.577350     0.577350     0.000000     0.000000     0.000000
   28    -1.000000   120.000000    -0.577350    -0.577350     0.577350     0.000000     0.000000     0.000000
   29     1.000000   180.000000     1.000000     0.000000     0.000000     0.000000     0.000000     0.000000
   30    -1.000000   180.000000     1.000000     0.000000     0.000000     0.000000     0.000000     0.000000
   31     1.000000    90.000000     0.000000    -1.000000     0.000000     0.000000     0.000000     0.000000
   32    -1.000000    90.000000     0.000000    -1.000000     0.000000     0.000000     0.000000     0.000000
   33     1.000000   180.000000     0.707107     0.707107     0.000000     0.000000     0.000000     0.000000
   34    -1.000000   180.000000     0.707107     0.707107     0.000000     0.000000     0.000000     0.000000
   35     1.000000    90.000000     1.000000     0.000000     0.000000     0.000000     0.000000     0.000000
   36    -1.000000    90.000000     1.000000     0.000000     0.000000     0.000000     0.000000     0.000000
   37     1.000000   120.000000     0.577350    -0.577350    -0.577350     0.000000     0.000000     0.000000
   38    -1.000000   120.000000     0.577350    -0.577350    -0.577350     0.000000     0.000000     0.000000
   39     1.000000   180.000000     0.000000     1.000000     0.000000     0.000000     0.000000     0.000000
   40    -1.000000   180.000000     0.000000     1.000000     0.000000     0.000000     0.000000     0.000000
   41     1.000000   120.000000     0.577350     0.577350    -0.577350     0.000000     0.000000     0.000000
   42    -1.000000   120.000000     0.577350     0.577350    -0.577350     0.000000     0.000000     0.000000
   43     1.000000   180.000000     0.000000    -0.707107     0.707107     0.000000     0.000000     0.000000
   44    -1.000000   180.000000     0.000000    -0.707107     0.707107     0.000000     0.000000     0.000000
   45     1.000000   180.000000     0.707107    -0.707107     0.000000     0.000000     0.000000     0.000000
   46    -1.000000   180.000000     0.707107    -0.707107     0.000000     0.000000     0.000000     0.000000
   47     1.000000   180.000000     0.707107     0.000000    -0.707107     0.000000     0.000000     0.000000
   48    -1.000000   180.000000     0.707107     0.000000    -0.707107     0.000000     0.000000     0.000000

 Subroutine IBZKPT returns following result:

 Found     35 irreducible k-points:

 Following reciprocal coordinates:
            Coordinates               Weight
  0.050000  0.050000  0.050000      8.000000
  0.150000  0.050000  0.050000     24.000000
  0.250000  0.050000  0.050000     24.000000
  0.350000  0.050000  0.050000     24.000000
  0.450000  0.050000  0.050000     24.000000
  0.150000  0.150000  0.050000     24.000000
  0.250000  0.150000  0.050000     48.000000
  0.350000  0.150000  0.050000     48.000000
  0.450000  0.150000  0.050000     48.000000
  0.250000  0.250000  0.050000     24.000000
  0.350000  0.250000  0.050000     48.000000
  0.450000  0.250000  0.050000     48.000000
  0.350000  0.350000  0.050000     24.000000
  0.450000  0.350000  0.050000     48.000000
  0.450000  0.450000  0.050000     24.000000
  0.150000  0.150000  0.150000      8.000000
  0.250000  0.150000  0.150000     24.000000
  0.350000  0.150000  0.150000     24.000000
  0.450000  0.150000  0.150000     24.000000
  0.250000  0.250000  0.150000     24.000000
  0.350000  0.250000  0.150000     48.000000
  0.450000  0.250000  0.150000     48.000000
  0.350000  0.350000  0.150000     24.000000
  0.450000  0.350000  0.150000     48.000000
  0.450000  0.450000  0.150000     24.000000
  0.250000  0.250000  0.250000      8.000000
  0.350000  0.250000  0.250000     24.000000
  0.450000  0.250000  0.250000     24.000000
  0.350000  0.350000  0.250000     24.000000
  0.450000  0.350000  0.250000     48.000000
  0.450000  0.450000  0.250000     24.000000
  0.350000  0.350000  0.350000      8.000000
  0.450000  0.350000  0.350000     24.000000
  0.450000  0.450000  0.350000     24.000000
  0.450000  0.450000  0.450000      8.000000

 Following cartesian coordinates:
            Coordinates               Weight
  0.015823  0.015823  0.015823      8.000000
  0.047468  0.015823  0.015823     24.000000
  0.079114  0.015823  0.015823     24.000000
  0.110759  0.015823  0.015823     24.000000
  0.142405  0.015823  0.015823     24.000000
  0.047468  0.047468  0.015823     24.000000
  0.079114  0.047468  0.015823     48.000000
  0.110759  0.047468  0.015823     48.000000
  0.142405  0.047468  0.015823     48.000000
  0.079114  0.079114  0.015823     24.000000
  0.110759  0.079114  0.015823     48.000000
[...]
 calculate Harris-corrections to forces
   (improved forces if not selfconsistent)
 use gradient corrections
 use of overlap-Matrix (Vanderbilt PP)
 Methfessel and Paxton  Order N= 2 SIGMA  =   0.20

  energy-cutoff  :      450.00
  volume of cell :       31.55
      direct lattice vectors                 reciprocal lattice vectors
     3.160000000  0.000000000  0.000000000     0.316455696  0.000000000  0.000000000
     0.000000000  3.160000000  0.000000000     0.000000000  0.316455696  0.000000000
     0.000000000  0.000000000  3.160000000     0.000000000  0.000000000  0.316455696

  length of vectors
     3.160000000  3.160000000  3.160000000     0.316455696  0.316455696  0.316455696

 k-points in units of 2pi/SCALE and weight: k-points
   0.01582278  0.01582278  0.01582278       0.008
   0.04746835  0.01582278  0.01582278       0.024
   0.07911392  0.01582278  0.01582278       0.024
   0.11075949  0.01582278  0.01582278       0.024
   0.14240506  0.01582278  0.01582278       0.024
   0.04746835  0.04746835  0.01582278       0.024
   0.07911392  0.04746835  0.01582278       0.048
   0.11075949  0.04746835  0.01582278       0.048
   0.14240506  0.04746835  0.01582278       0.048
   0.07911392  0.07911392  0.01582278       0.024
   0.11075949  0.07911392  0.01582278       0.048
   0.14240506  0.07911392  0.01582278       0.048
   0.11075949  0.11075949  0.01582278       0.024
   0.14240506  0.11075949  0.01582278       0.048
   0.14240506  0.14240506  0.01582278       0.024
   0.04746835  0.04746835  0.04746835       0.008
   0.07911392  0.04746835  0.04746835       0.024
   0.11075949  0.04746835  0.04746835       0.024
   0.14240506  0.04746835  0.04746835       0.024
   0.07911392  0.07911392  0.04746835       0.024
   0.11075949  0.07911392  0.04746835       0.048
   0.14240506  0.07911392  0.04746835       0.048
   0.11075949  0.11075949  0.04746835       0.024
   0.14240506  0.11075949  0.04746835       0.048
   0.14240506  0.14240506  0.04746835       0.024
   0.07911392  0.07911392  0.07911392       0.008
   0.11075949  0.07911392  0.07911392       0.024
   0.14240506  0.07911392  0.07911392       0.024
   0.11075949  0.11075949  0.07911392       0.024
   0.14240506  0.11075949  0.07911392       0.048
   0.14240506  0.14240506  0.07911392       0.024
   0.11075949  0.11075949  0.11075949       0.008
   0.14240506  0.11075949  0.11075949       0.024
   0.14240506  0.14240506  0.11075949       0.024
   0.14240506  0.14240506  0.14240506       0.008

 k-points in reciprocal lattice and weights: k-points
   0.05000000  0.05000000  0.05000000       0.008
   0.15000000  0.05000000  0.05000000       0.024
   0.25000000  0.05000000  0.05000000       0.024
   0.35000000  0.05000000  0.05000000       0.024
   0.45000000  0.05000000  0.05000000       0.024
   0.15000000  0.15000000  0.05000000       0.024
   0.25000000  0.15000000  0.05000000       0.048
   0.35000000  0.15000000  0.05000000       0.048
   0.45000000  0.15000000  0.05000000       0.048
   0.25000000  0.25000000  0.05000000       0.024
   0.35000000  0.25000000  0.05000000       0.048
   0.45000000  0.25000000  0.05000000       0.048
   0.35000000  0.35000000  0.05000000       0.024
   0.45000000  0.35000000  0.05000000       0.048
   0.45000000  0.45000000  0.05000000       0.024
   0.15000000  0.15000000  0.15000000       0.008
   0.25000000  0.15000000  0.15000000       0.024
   0.35000000  0.15000000  0.15000000       0.024
   0.45000000  0.15000000  0.15000000       0.024
   0.25000000  0.25000000  0.15000000       0.024
   0.35000000  0.25000000  0.15000000       0.048
   0.45000000  0.25000000  0.15000000       0.048
   0.35000000  0.35000000  0.15000000       0.024
   0.45000000  0.35000000  0.15000000       0.048
   0.45000000  0.45000000  0.15000000       0.024
   0.25000000  0.25000000  0.25000000       0.008
   0.35000000  0.25000000  0.25000000       0.024
   0.45000000  0.25000000  0.25000000       0.024
   0.35000000  0.35000000  0.25000000       0.024
   0.45000000  0.35000000  0.25000000       0.048
   0.45000000  0.45000000  0.25000000       0.024
   0.35000000  0.35000000  0.35000000       0.008
   0.45000000  0.35000000  0.35000000       0.024
   0.45000000  0.45000000  0.35000000       0.024
   0.45000000  0.45000000  0.45000000       0.008

 position of ions in fractional coordinates (direct lattice)
   0.00000000  0.00000000  0.00000000
   0.50000000  0.50000000  0.50000000

 position of ions in cartesian coordinates  (Angst):
   0.00000000  0.00000000  0.00000000
   1.58000000  1.58000000  1.58000000

 k-point  1 :   0.0500 0.0500 0.0500  plane waves:     709
 k-point  2 :   0.1500 0.0500 0.0500  plane waves:     693
 k-point  3 :   0.2500 0.0500 0.0500  plane waves:     689
 k-point  4 :   0.3500 0.0500 0.0500  plane waves:     688
 k-point  5 :   0.4500 0.0500 0.0500  plane waves:     678
 k-point  6 :   0.1500 0.1500 0.0500  plane waves:     692
 k-point  7 :   0.2500 0.1500 0.0500  plane waves:     691
 k-point  8 :   0.3500 0.1500 0.0500  plane waves:     685
 k-point  9 :   0.4500 0.1500 0.0500  plane waves:     684
 k-point 10 :   0.2500 0.2500 0.0500  plane waves:     691
 k-point 11 :   0.3500 0.2500 0.0500  plane waves:     686
 k-point 12 :   0.4500 0.2500 0.0500  plane waves:     688
 k-point 13 :   0.3500 0.3500 0.0500  plane waves:     685
 k-point 14 :   0.4500 0.3500 0.0500  plane waves:     684
 k-point 15 :   0.4500 0.4500 0.0500  plane waves:     677
 k-point 16 :   0.1500 0.1500 0.1500  plane waves:     688
 k-point 17 :   0.2500 0.1500 0.1500  plane waves:     689
 k-point 18 :   0.3500 0.1500 0.1500  plane waves:     687
 k-point 19 :   0.4500 0.1500 0.1500  plane waves:     681
 k-point 20 :   0.2500 0.2500 0.1500  plane waves:     692
 k-point 21 :   0.3500 0.2500 0.1500  plane waves:     684
 k-point 22 :   0.4500 0.2500 0.1500  plane waves:     680
 k-point 23 :   0.3500 0.3500 0.1500  plane waves:     685
 k-point 24 :   0.4500 0.3500 0.1500  plane waves:     683
 k-point 25 :   0.4500 0.4500 0.1500  plane waves:     679
 k-point 26 :   0.2500 0.2500 0.2500  plane waves:     690
 k-point 27 :   0.3500 0.2500 0.2500  plane waves:     685
 k-point 28 :   0.4500 0.2500 0.2500  plane waves:     677
 k-point 29 :   0.3500 0.3500 0.2500  plane waves:     684
 k-point 30 :   0.4500 0.3500 0.2500  plane waves:     677
 k-point 31 :   0.4500 0.4500 0.2500  plane waves:     675
 k-point 32 :   0.3500 0.3500 0.3500  plane waves:     678
 k-point 33 :   0.4500 0.3500 0.3500  plane waves:     674
 k-point 34 :   0.4500 0.4500 0.3500  plane waves:     673
 k-point 35 :   0.4500 0.4500 0.4500  plane waves:     675

 maximum and minimum number of plane-waves per node :        37       20

 maximum number of plane-waves:       709
 maximum index in each direction:
   IXMAX=    5   IYMAX=    5   IZMAX=    5
   IXMIN=   -5   IYMIN=   -5   IZMIN=   -5

 WARNING: aliasing errors must be expected set NGX to  22 to avoid them
 WARNING: aliasing errors must be expected set NGY to  22 to avoid them
 WARNING: aliasing errors must be expected set NGZ to  22 to avoid them
 aliasing errors are usually negligible using standard VASP settings
 and one can safely disregard these warnings

 real space projection operators:
  max/ min on nodes  :         47.53          0.00

 parallel 3D FFT for wavefunctions:
    minimum data exchange during FFTs selected (reduces bandwidth)
 parallel 3D FFT for charge:
    minimum data exchange during FFTs selected (reduces bandwidth)

 Broyden mixing: mesh for mixing (old mesh)
   NGX = 11   NGY = 11   NGZ = 11
  (NGX  = 32   NGY  = 32   NGZ  = 32)
  gives a total of   1331 points

 initial charge density was supplied:
 charge density of overlapping atoms calculated
 number of electron      12.0000000 magnetization       2.0000000
 keeping initial charge density in first step

 Maximum index for non-local projection operator          221
 Maximum index for augmentation-charges          437 (set IRDMAX)

 First call to EWALD:  gamma=   0.561
 Maximum number of real-space cells 3x 3x 3
 Maximum number of reciprocal cells 3x 3x 3

 FEWALD executed in parallel

----------------------------------------- Iteration    1(   1)  ---------------------------------------

 eigenvalue-minimisations  :  1680
 total energy-change (2. order) : 0.2713131E+02  (-0.4970485E+03)
 number of electron      12.0000000 magnetization       2.0000000
 augmentation part       12.0000000 magnetization       2.0000000

 Free energy of the ion-electron system (eV)
  alpha Z        PSCENC =        92.39034843
  Ewald energy   TEWEN  =      -597.00973006
  -Hartree energ DENC   =       -11.73786161
  -exchange      EXHF   =         0.00000000
  -V(xc)+E(xc)   XCENC  =       -95.44956721
  PAW double counting   =       483.57643779     -365.30187148
  entropy T*S    EENTRO =        -0.00034390
  eigenvalues    EBANDS =       111.44769658
  atomic energy  EATOM  =       409.21620559
  Solvation  Ediel_sol  =         0.00000000
  free energy    TOTEN  =        27.13131412 eV

  energy without entropy =       27.13165802  energy(sigma->0) =       27.13140010

[...]

 eigenvalue-minimisations  :  2112
 total energy-change (2. order) :-0.4301731E+04  (-0.3722709E+04)
 number of electron      12.0000000 magnetization       2.0000000
 augmentation part       12.0000000 magnetization       2.0000000

[...]

 eigenvalue-minimisations  :  1940
 total energy-change (2. order) : 0.8640620E+03  ( 0.2769668E+03)
 number of electron      12.0000000 magnetization       2.0000000
 augmentation part       12.0000000 magnetization       2.0000000

[...]

 Broyden mixing:
  rms(total) = 0.86750E+01    rms(broyden)= 0.86750E+01
  rms(prec ) = 0.88442E+01
  weight for this iteration     100.00

[...]

 eigenvalues of (default mixing * dielectric matrix)
  average eigenvalue GAMMA=   0.4382
  0.4382

[...]

 eigenvalue-minimisations  :  1686
 total energy-change (2. order) : 0.1370944E+00  (-0.1991246E-01)
 number of electron      11.9999993 magnetization      -0.1640074
 augmentation part        1.3442617 magnetization      -0.0496356

[...]

 eigenvalue-minimisations  :   880
 total energy-change (2. order) :-0.2781417E-06  ( 0.1150533E-03)
 number of electron      11.9999993 magnetization      -0.0272847
 augmentation part        1.3850584 magnetization      -0.0021403

[...]

 eigenvalue-minimisations  :   484
 total energy-change (2. order) : 0.1546053E-05  ( 0.4013340E-05)
 number of electron      11.9999993 magnetization      -0.0248958
 augmentation part        1.3853332 magnetization      -0.0134715

[...]

 eigenvalue-minimisations  :   131
 total energy-change (2. order) :-0.6802824E-01  ( 0.1338039E-06)
 number of electron      11.9999993 magnetization      -0.0243844
 augmentation part        1.3840179 magnetization      -0.0212222

[...]

 Broyden mixing:
  rms(total) = 0.77714E-02    rms(broyden)= 0.77714E-02
  rms(prec ) = 0.82666E-02
  weight for this iteration     100.00

 eigenvalues of (default mixing * dielectric matrix)
  average eigenvalue GAMMA=   0.8502
  3.0768  3.0768  2.5004  2.5004  2.1088  1.6263  1.6263  1.2540  1.2540  1.0200
  1.0200  0.9983  0.7928  0.7928  0.7963  0.7137  0.6476  0.6258  0.5926  0.5926
  0.6078  0.6078  0.4680  0.2958  0.1740  0.1740  0.1033  0.1286  0.1286  0.0981
  0.0981  0.0350  0.0350  0.0188  0.0028  0.0138

[...]

----------------------------------------- Iteration    1(  42)  ---------------------------------------

 eigenvalue-minimisations  :    78
 total energy-change (2. order) :-0.1892358E-06  (-0.2855725E-06)
 number of electron      11.9999993 magnetization      -0.0244786
 augmentation part        1.3837395 magnetization      -0.0215970

 Free energy of the ion-electron system (eV)
  alpha Z        PSCENC =        92.39034843
  Ewald energy   TEWEN  =      -597.00973006
  -Hartree energ DENC   =        -4.46453428
  -exchange      EXHF   =         0.00000000
  -V(xc)+E(xc)   XCENC  =       -94.35308481
  PAW double counting   =      1562.01614281    -1446.93372584
  entropy T*S    EENTRO =         0.00227929
  eigenvalues    EBANDS =        53.10399737
  atomic energy  EATOM  =       409.21620559
  Solvation  Ediel_sol  =         0.00000000
  free energy    TOTEN  =       -26.03210151 eV

  energy without entropy =      -26.03438080  energy(sigma->0) =      -26.03267133

 average (electrostatic) potential at core
  the test charge radii are     1.1823
  (the norm of the test charge is              1.0000)
       1 -37.8284       2 -37.8284

 E-fermi :   7.9267     XC(G=0): -13.1636     alpha+bet :-14.6887

 spin component 1

 k-point     1 :       0.0500    0.0500    0.0500
  band No.  band energies     occupation
      1      -1.5895      1.00000
      2       2.1348      1.00000
      3       2.1348      1.00000
      4       6.5495      1.00000
      5       6.5495      1.00000
      6       6.8421      1.00000
      7      10.0329      0.00000
      8      10.0635      0.00000
      9      43.8972      0.00000
     10      44.1322      0.00000
     11      20.0928      0.00000
     12      31.1588      0.00000

[...]

 spin component 2

[...]

 k-point    35 :       0.4500    0.4500    0.4500
  band No.  band energies     occupation
      1       4.2573      1.00000
      2       4.6373      1.00000
      3       4.6373      1.00000
      4       5.1205      1.00000
      5       5.1205      1.00000
      6       5.1429      1.00000
      7      11.0976      0.00000
      8      11.0976      0.00000
      9      11.1017      0.00000
     10      11.1017      0.00000
     11      14.9274      0.00000
     12      15.0774      0.00000

 soft charge-density along one line, spin component           1
         0         1         2         3         4         5         6         7         8         9
 total charge-density along one line

 soft charge-density along one line, spin component           2
         0         1         2         3         4         5         6         7         8         9
 total charge-density along one line

------------------------ aborting loop because EDIFF is reached ----------------------------------------

  FORCE on cell =-STRESS in cart. coord.  units (eV):
  Direction    XX          YY          ZZ          XY          YZ          ZX
  Alpha Z    92.39035    92.39035    92.39035
  Ewald    -199.00323  -199.00323  -199.00323    -0.00000    -0.00000    -0.00000
  Hartree     1.48430     1.48430     1.48430    -0.00000    -0.00000    -0.00000
  E(xc)     -54.10499   -54.10499   -54.10499     0.00000    -0.00000    -0.00000
  Local      18.08731    18.08731    18.08731     0.00000    -0.00000     0.00000
  n-local   -26.71674   -22.23466   -20.55989     3.52338    -1.04082     1.00715
  augment    10.54801    10.54801    10.54801    -0.00000    -0.00000    -0.00000
  Kinetic   144.09602   152.68279   166.38542     7.80740    -2.36821     1.80211
  Fock        0.00000     0.00000     0.00000     0.00000     0.00000     0.00000
  Total       0.61941     0.61941     0.61941     0.00000    -0.00000     0.00000
  in kB      31.45035    31.45035    31.45035     0.00000    -0.00000     0.00000

 VOLUME and BASIS-vectors are now :
  energy-cutoff  :      450.00
  volume of cell :       31.55
      direct lattice vectors                 reciprocal lattice vectors
     3.160000000  0.000000000  0.000000000     0.316455696  0.000000000  0.000000000
     0.000000000  3.160000000  0.000000000     0.000000000  0.316455696  0.000000000
     0.000000000  0.000000000  3.160000000     0.000000000  0.000000000  0.316455696

  length of vectors
     3.160000000  3.160000000  3.160000000     0.316455696  0.316455696  0.316455696

 FORCES acting on ions
    electron-ion (+dipol)            ewald-force                    non-local-force                 convergence-correction
   -.792E-15 -.393E-14 0.181E-15   -.273E-14 -.139E-14 -.893E-15   0.662E-23 -.165E-23 0.000E+00   0.284E-14 -.984E-14 0.186E-14
   0.567E-14 0.662E-13 0.327E-14   0.352E-14 0.607E-15 0.752E-15   0.662E-23 -.165E-23 0.000E+00   -.441E-14 0.110E-13 -.122E-14
   0.487E-14 0.623E-13 0.346E-14   0.796E-15 -.788E-15 -.141E-15   0.132E-22 -.331E-23 0.000E+00   -.157E-14 0.113E-14 0.641E-15

 POSITION                                       TOTAL-FORCE (eV/Angst)
      0.00000      0.00000      0.00000        -0.000000     -0.000000     -0.000000
      1.58000      1.58000      1.58000         0.000000      0.000000      0.000000
    total drift:                                0.000000      0.000000      0.000000

  FREE ENERGIE OF THE ION-ELECTRON SYSTEM (eV)
  free  energy   TOTEN  =       -26.03210151 eV

  energy  without entropy=      -26.03438080  energy(sigma->0) =      -26.03267133

 reached required accuracy - stopping structural energy minimisation