 vasp.5.4.1 05Feb16 (build Mar 19 2020 08:54:17) complex

 executed on           IFC91_ompi date 2022.01.25  11:17:35

 INCAR:
 POTCAR:    PAW_PBE Nb_sv 25May2007

 POTCAR:    PAW_PBE Nb_sv 25May2007
   VRHFIN =Nb: 4p5s4d

   TITEL  = PAW_PBE Nb_sv 25May2007
   POMASS =   92.910; ZVAL   =   13.000    mass and valenz
   ENMAX  =  293.235; ENMIN  =  219.927 eV

 Optimization of the real space projectors (new method)

 maximal supplied QI-value         = 15.68
 optimisation between [QCUT,QGAM] = [ 10.82, 21.64] = [ 32.80,131.19] Ry
 Optimized for a Real-space Cutoff    1.65 Angstroem

   l    n(q)    QCUT    max X(q) W(low)/X(q) W(high)/X(q)  e(spline)
   0     11    10.822    10.201    0.23E-04    0.55E-05    0.31E-07
   0     11    10.822     8.174    0.35E-04    0.99E-05    0.65E-07
   1     10    10.822     3.488    0.18E-04    0.21E-04    0.55E-07
   1     10    10.822     4.917    0.15E-03    0.13E-03    0.29E-06
   2     10    10.822   153.744    0.28E-03    0.15E-03    0.13E-05
   2     10    10.822   126.342    0.28E-03    0.15E-03    0.13E-05
  PAW_PBE Nb_sv 25May2007               :

 POSCAR: Nb Cell
  positions in direct lattice
 exchange correlation table for  LEXCH =        8
   RHO(1)=    0.500       N(1)  =     2000
   RHO(2)=  100.500       N(2)  =     4000

 ion  position               nearest neighbor table
   1  0.000  0.000  0.000-   2 2.86   2 2.86   2 2.86   2 2.86   2 2.86   2 2.86   2 2.86   2 2.86

   2  0.500  0.500  0.500-   1 2.86   1 2.86   1 2.86   1 2.86   1 2.86   1 2.86   1 2.86   1 2.86

  LATTYP: Found a simple cubic cell.
 ALAT       =     3.3000000000

  Lattice vectors:

 A1 = (   3.3000000000,   0.0000000000,   0.0000000000)
 A2 = (   0.0000000000,   3.3000000000,   0.0000000000)
 A3 = (   0.0000000000,   0.0000000000,   3.3000000000)

Analysis of symmetry for initial positions (statically):
 Subroutine PRICEL returns following result:

  LATTYP: Found a body centered cubic cell.
 ALAT       =     3.3000000000

[...]

   2 primitive cells build up your supercell.

 Routine SETGRP: Setting up the symmetry group for a
 simple cubic supercell.

 Subroutine GETGRP returns: Found 48 space group operations
 (whereof 48 operations were pure point group operations)
 out of a pool of 48 trial point group operations.

The static configuration has the point symmetry O_h .

Analysis of symmetry for dynamics (positions and initial velocities):
 Subroutine PRICEL returns following result:

[...]

The dynamic configuration has the point symmetry O_h .

Analysis of structural, dynamic, and magnetic symmetry:
 Subroutine PRICEL returns following result:

  LATTYP: Found a body centered cubic cell.
 ALAT       =     3.3000000000

  Lattice vectors:

 A1 = (   1.6500000000,   1.6500000000,   1.6500000000)
 A2 = (   1.6500000000,  -1.6500000000,  -1.6500000000)
 A3 = (  -1.6500000000,   1.6500000000,  -1.6500000000)

   2 primitive cells build up your supercell.

 Routine SETGRP: Setting up the symmetry group for a
 simple cubic supercell.

 Subroutine GETGRP returns: Found 48 space group operations
 (whereof 48 operations were pure point group operations)
 out of a pool of 48 trial point group operations.

The magnetic configuration has the point symmetry O_h .

 Subroutine INISYM returns: Found 48 space group operations
 (whereof 48 operations are pure point group operations),
 and found     2 'primitive' translations

 KPOINTS: k-points

Automatic generation of k-mesh.
Space group operators:
 irot       det(A)        alpha          n_x          n_y          n_z        tau_x        tau_y        tau_z
    1     1.000000     0.000000     1.000000     0.000000     0.000000     0.000000     0.000000     0.000000
    2    -1.000000     0.000000     1.000000     0.000000     0.000000     0.000000     0.000000     0.000000
    3     1.000000   120.000000    -0.577350    -0.577350    -0.577350     0.000000     0.000000     0.000000
    4    -1.000000   120.000000    -0.577350    -0.577350    -0.577350     0.000000     0.000000     0.000000
    5     1.000000   120.000000     0.577350     0.577350     0.577350     0.000000     0.000000     0.000000
    6    -1.000000   120.000000     0.577350     0.577350     0.577350     0.000000     0.000000     0.000000
    7     1.000000    90.000000     0.000000     0.000000    -1.000000     0.000000     0.000000     0.000000
    8    -1.000000    90.000000     0.000000     0.000000    -1.000000     0.000000     0.000000     0.000000
    9     1.000000   180.000000     0.000000     0.707107     0.707107     0.000000     0.000000     0.000000
   10    -1.000000   180.000000     0.000000     0.707107     0.707107     0.000000     0.000000     0.000000
   11     1.000000    90.000000     0.000000     1.000000     0.000000     0.000000     0.000000     0.000000
   12    -1.000000    90.000000     0.000000     1.000000     0.000000     0.000000     0.000000     0.000000
   13     1.000000   180.000000     0.000000     0.000000     1.000000     0.000000     0.000000     0.000000
   14    -1.000000   180.000000     0.000000     0.000000     1.000000     0.000000     0.000000     0.000000
   15     1.000000   120.000000    -0.577350     0.577350     0.577350     0.000000     0.000000     0.000000
   16    -1.000000   120.000000    -0.577350     0.577350     0.577350     0.000000     0.000000     0.000000
   17     1.000000   120.000000    -0.577350     0.577350    -0.577350     0.000000     0.000000     0.000000
   18    -1.000000   120.000000    -0.577350     0.577350    -0.577350     0.000000     0.000000     0.000000
   19     1.000000    90.000000     0.000000     0.000000     1.000000     0.000000     0.000000     0.000000
   20    -1.000000    90.000000     0.000000     0.000000     1.000000     0.000000     0.000000     0.000000
   21     1.000000    90.000000    -1.000000     0.000000     0.000000     0.000000     0.000000     0.000000
   22    -1.000000    90.000000    -1.000000     0.000000     0.000000     0.000000     0.000000     0.000000
   23     1.000000   180.000000     0.707107     0.000000     0.707107     0.000000     0.000000     0.000000
   24    -1.000000   180.000000     0.707107     0.000000     0.707107     0.000000     0.000000     0.000000
   25     1.000000   120.000000     0.577350    -0.577350     0.577350     0.000000     0.000000     0.000000
   26    -1.000000   120.000000     0.577350    -0.577350     0.577350     0.000000     0.000000     0.000000
   27     1.000000   120.000000    -0.577350    -0.577350     0.577350     0.000000     0.000000     0.000000
   28    -1.000000   120.000000    -0.577350    -0.577350     0.577350     0.000000     0.000000     0.000000
   29     1.000000   180.000000     1.000000     0.000000     0.000000     0.000000     0.000000     0.000000
   30    -1.000000   180.000000     1.000000     0.000000     0.000000     0.000000     0.000000     0.000000
   31     1.000000    90.000000     0.000000    -1.000000     0.000000     0.000000     0.000000     0.000000
   32    -1.000000    90.000000     0.000000    -1.000000     0.000000     0.000000     0.000000     0.000000
   33     1.000000   180.000000     0.707107     0.707107     0.000000     0.000000     0.000000     0.000000
   34    -1.000000   180.000000     0.707107     0.707107     0.000000     0.000000     0.000000     0.000000
   35     1.000000    90.000000     1.000000     0.000000     0.000000     0.000000     0.000000     0.000000
   36    -1.000000    90.000000     1.000000     0.000000     0.000000     0.000000     0.000000     0.000000
   37     1.000000   120.000000     0.577350    -0.577350    -0.577350     0.000000     0.000000     0.000000
   38    -1.000000   120.000000     0.577350    -0.577350    -0.577350     0.000000     0.000000     0.000000
   39     1.000000   180.000000     0.000000     1.000000     0.000000     0.000000     0.000000     0.000000
   40    -1.000000   180.000000     0.000000     1.000000     0.000000     0.000000     0.000000     0.000000
   41     1.000000   120.000000     0.577350     0.577350    -0.577350     0.000000     0.000000     0.000000
   42    -1.000000   120.000000     0.577350     0.577350    -0.577350     0.000000     0.000000     0.000000
   43     1.000000   180.000000     0.000000    -0.707107     0.707107     0.000000     0.000000     0.000000
   44    -1.000000   180.000000     0.000000    -0.707107     0.707107     0.000000     0.000000     0.000000
   45     1.000000   180.000000     0.707107    -0.707107     0.000000     0.000000     0.000000     0.000000
   46    -1.000000   180.000000     0.707107    -0.707107     0.000000     0.000000     0.000000     0.000000
   47     1.000000   180.000000     0.707107     0.000000    -0.707107     0.000000     0.000000     0.000000
   48    -1.000000   180.000000     0.707107     0.000000    -0.707107     0.000000     0.000000     0.000000

 Subroutine IBZKPT returns following result:

 Found     35 irreducible k-points:

 Following reciprocal coordinates:
            Coordinates               Weight
  0.050000  0.050000  0.050000      8.000000
  0.150000  0.050000  0.050000     24.000000
  0.250000  0.050000  0.050000     24.000000
  0.350000  0.050000  0.050000     24.000000
  0.450000  0.050000  0.050000     24.000000
  0.150000  0.150000  0.050000     24.000000
  0.250000  0.150000  0.050000     48.000000
  0.350000  0.150000  0.050000     48.000000
  0.450000  0.150000  0.050000     48.000000
  0.250000  0.250000  0.050000     24.000000
  0.350000  0.250000  0.050000     48.000000
  0.450000  0.250000  0.050000     48.000000
  0.350000  0.350000  0.050000     24.000000
  0.450000  0.350000  0.050000     48.000000
  0.450000  0.450000  0.050000     24.000000
  0.150000  0.150000  0.150000      8.000000
  0.250000  0.150000  0.150000     24.000000
  0.350000  0.150000  0.150000     24.000000
  0.450000  0.150000  0.150000     24.000000
  0.250000  0.250000  0.150000     24.000000
  0.350000  0.250000  0.150000     48.000000
  0.450000  0.250000  0.150000     48.000000
  0.350000  0.350000  0.150000     24.000000
  0.450000  0.350000  0.150000     48.000000
  0.450000  0.450000  0.150000     24.000000
  0.250000  0.250000  0.250000      8.000000
  0.350000  0.250000  0.250000     24.000000
  0.450000  0.250000  0.250000     24.000000
  0.350000  0.350000  0.250000     24.000000
  0.450000  0.350000  0.250000     48.000000
  0.450000  0.450000  0.250000     24.000000
  0.350000  0.350000  0.350000      8.000000
  0.450000  0.350000  0.350000     24.000000
  0.450000  0.450000  0.350000     24.000000
  0.450000  0.450000  0.450000      8.000000

 Following cartesian coordinates:
            Coordinates               Weight
  0.015152  0.015152  0.015152      8.000000
  0.045455  0.015152  0.015152     24.000000
  0.075758  0.015152  0.015152     24.000000
  0.106061  0.015152  0.015152     24.000000
  0.136364  0.015152  0.015152     24.000000
  0.045455  0.045455  0.015152     24.000000
  0.075758  0.045455  0.015152     48.000000
  0.106061  0.045455  0.015152     48.000000
  0.136364  0.045455  0.015152     48.000000
  0.075758  0.075758  0.015152     24.000000
  0.106061  0.075758  0.015152     48.000000
[...]
   0.01515152  0.01515152  0.01515152       0.008
   0.04545455  0.01515152  0.01515152       0.024
   0.07575758  0.01515152  0.01515152       0.024
   0.10606061  0.01515152  0.01515152       0.024
   0.13636364  0.01515152  0.01515152       0.024
   0.04545455  0.04545455  0.01515152       0.024
   0.07575758  0.04545455  0.01515152       0.048
   0.10606061  0.04545455  0.01515152       0.048
   0.13636364  0.04545455  0.01515152       0.048
   0.07575758  0.07575758  0.01515152       0.024
   0.10606061  0.07575758  0.01515152       0.048
   0.13636364  0.07575758  0.01515152       0.048
   0.10606061  0.10606061  0.01515152       0.024
   0.13636364  0.10606061  0.01515152       0.048
   0.13636364  0.13636364  0.01515152       0.024
   0.04545455  0.04545455  0.04545455       0.008
   0.07575758  0.04545455  0.04545455       0.024
   0.10606061  0.04545455  0.04545455       0.024
   0.13636364  0.04545455  0.04545455       0.024
   0.07575758  0.07575758  0.04545455       0.024
   0.10606061  0.07575758  0.04545455       0.048
   0.13636364  0.07575758  0.04545455       0.048
   0.10606061  0.10606061  0.04545455       0.024
   0.13636364  0.10606061  0.04545455       0.048
   0.13636364  0.13636364  0.04545455       0.024
   0.07575758  0.07575758  0.07575758       0.008
   0.10606061  0.07575758  0.07575758       0.024
   0.13636364  0.07575758  0.07575758       0.024
   0.10606061  0.10606061  0.07575758       0.024
   0.13636364  0.10606061  0.07575758       0.048
   0.13636364  0.13636364  0.07575758       0.024
   0.10606061  0.10606061  0.10606061       0.008
   0.13636364  0.10606061  0.10606061       0.024
   0.13636364  0.13636364  0.10606061       0.024
   0.13636364  0.13636364  0.13636364       0.008

 k-points in reciprocal lattice and weights: k-points
   0.05000000  0.05000000  0.05000000       0.008
   0.15000000  0.05000000  0.05000000       0.024
   0.25000000  0.05000000  0.05000000       0.024
   0.35000000  0.05000000  0.05000000       0.024
   0.45000000  0.05000000  0.05000000       0.024
   0.15000000  0.15000000  0.05000000       0.024
   0.25000000  0.15000000  0.05000000       0.048
   0.35000000  0.15000000  0.05000000       0.048
   0.45000000  0.15000000  0.05000000       0.048
   0.25000000  0.25000000  0.05000000       0.024
   0.35000000  0.25000000  0.05000000       0.048
   0.45000000  0.25000000  0.05000000       0.048
   0.35000000  0.35000000  0.05000000       0.024
   0.45000000  0.35000000  0.05000000       0.048
   0.45000000  0.45000000  0.05000000       0.024
   0.15000000  0.15000000  0.15000000       0.008
   0.25000000  0.15000000  0.15000000       0.024
   0.35000000  0.15000000  0.15000000       0.024
   0.45000000  0.15000000  0.15000000       0.024
   0.25000000  0.25000000  0.15000000       0.024
   0.35000000  0.25000000  0.15000000       0.048
   0.45000000  0.25000000  0.15000000       0.048
   0.35000000  0.35000000  0.15000000       0.024
   0.45000000  0.35000000  0.15000000       0.048
   0.45000000  0.45000000  0.15000000       0.024
   0.25000000  0.25000000  0.25000000       0.008
   0.35000000  0.25000000  0.25000000       0.024
   0.45000000  0.25000000  0.25000000       0.024
   0.35000000  0.35000000  0.25000000       0.024
   0.45000000  0.35000000  0.25000000       0.048
   0.45000000  0.45000000  0.25000000       0.024
   0.35000000  0.35000000  0.35000000       0.008
   0.45000000  0.35000000  0.35000000       0.024
   0.45000000  0.45000000  0.35000000       0.024
   0.45000000  0.45000000  0.45000000       0.008

 position of ions in fractional coordinates (direct lattice)
   0.00000000  0.00000000  0.00000000
   0.50000000  0.50000000  0.50000000

 position of ions in cartesian coordinates  (Angst):
   0.00000000  0.00000000  0.00000000
   1.65000000  1.65000000  1.65000000

 k-point  1 :   0.0500 0.0500 0.0500  plane waves:     763
 k-point  2 :   0.1500 0.0500 0.0500  plane waves:     769
 k-point  3 :   0.2500 0.0500 0.0500  plane waves:     780
 k-point  4 :   0.3500 0.0500 0.0500  plane waves:     788
 k-point  5 :   0.4500 0.0500 0.0500  plane waves:     790
 k-point  6 :   0.1500 0.1500 0.0500  plane waves:     779
 k-point  7 :   0.2500 0.1500 0.0500  plane waves:     779
 k-point  8 :   0.3500 0.1500 0.0500  plane waves:     780
 k-point  9 :   0.4500 0.1500 0.0500  plane waves:     784
 k-point 10 :   0.2500 0.2500 0.0500  plane waves:     778
 k-point 11 :   0.3500 0.2500 0.0500  plane waves:     777
 k-point 12 :   0.4500 0.2500 0.0500  plane waves:     787
 k-point 13 :   0.3500 0.3500 0.0500  plane waves:     776
 k-point 14 :   0.4500 0.3500 0.0500  plane waves:     782
 k-point 15 :   0.4500 0.4500 0.0500  plane waves:     777
 k-point 16 :   0.1500 0.1500 0.1500  plane waves:     778
 k-point 17 :   0.2500 0.1500 0.1500  plane waves:     781
 k-point 18 :   0.3500 0.1500 0.1500  plane waves:     779
 k-point 19 :   0.4500 0.1500 0.1500  plane waves:     787
 k-point 20 :   0.2500 0.2500 0.1500  plane waves:     774
 k-point 21 :   0.3500 0.2500 0.1500  plane waves:     774
 k-point 22 :   0.4500 0.2500 0.1500  plane waves:     777
 k-point 23 :   0.3500 0.3500 0.1500  plane waves:     782
 k-point 24 :   0.4500 0.3500 0.1500  plane waves:     782
 k-point 25 :   0.4500 0.4500 0.1500  plane waves:     777
 k-point 26 :   0.2500 0.2500 0.2500  plane waves:     769
 k-point 27 :   0.3500 0.2500 0.2500  plane waves:     777
 k-point 28 :   0.4500 0.2500 0.2500  plane waves:     778
 k-point 29 :   0.3500 0.3500 0.2500  plane waves:     778
 k-point 30 :   0.4500 0.3500 0.2500  plane waves:     776
 k-point 31 :   0.4500 0.4500 0.2500  plane waves:     775
 k-point 32 :   0.3500 0.3500 0.3500  plane waves:     774
 k-point 33 :   0.4500 0.3500 0.3500  plane waves:     778
 k-point 34 :   0.4500 0.4500 0.3500  plane waves:     772
 k-point 35 :   0.4500 0.4500 0.4500  plane waves:     765

 maximum and minimum number of plane-waves per node :        40       28

 maximum number of plane-waves:       790
 maximum index in each direction:
   IXMAX=    5   IYMAX=    5   IZMAX=    5
   IXMIN=   -6   IYMIN=   -6   IZMIN=   -6

 WARNING: aliasing errors must be expected set NGX to  24 to avoid them
 WARNING: aliasing errors must be expected set NGY to  24 to avoid them
 WARNING: aliasing errors must be expected set NGZ to  24 to avoid them
 aliasing errors are usually negligible using standard VASP settings
 and one can safely disregard these warnings

 real space projection operators:
  max/ min on nodes  :         52.03          0.00

 parallel 3D FFT for wavefunctions:
    minimum data exchange during FFTs selected (reduces bandwidth)
 parallel 3D FFT for charge:
    minimum data exchange during FFTs selected (reduces bandwidth)

 Broyden mixing: mesh for mixing (old mesh)
   NGX = 11   NGY = 11   NGZ = 11
  (NGX  = 36   NGY  = 36   NGZ  = 36)
  gives a total of   1331 points

 initial charge density was supplied:
 charge density of overlapping atoms calculated
 number of electron      26.0000000 magnetization       2.0000000
 keeping initial charge density in first step

 Maximum index for non-local projection operator          241
 Maximum index for augmentation-charges          429 (set IRDMAX)

 First call to EWALD:  gamma=   0.537
 Maximum number of real-space cells 3x 3x 3
 Maximum number of reciprocal cells 3x 3x 3

 FEWALD executed in parallel

----------------------------------------- Iteration    1(   1)  ---------------------------------------

 eigenvalue-minimisations  :  2808
 total energy-change (2. order) : 0.2699624E+03  (-0.1372909E+04)
 number of electron      26.0000000 magnetization       2.0000000
 augmentation part       26.0000000 magnetization       2.0000000

 Free energy of the ion-electron system (eV)
  alpha Z        PSCENC =       165.90714528
  Ewald energy   TEWEN  =     -2683.72959800
  -Hartree energ DENC   =      -493.39816438
  -exchange      EXHF   =         0.00000000
  -V(xc)+E(xc)   XCENC  =       114.10814259
  PAW double counting   =      2467.46322748    -2429.32784001
  entropy T*S    EENTRO =         0.00107010
  eigenvalues    EBANDS =        18.57832826
  atomic energy  EATOM  =      3110.36007685
  Solvation  Ediel_sol  =         0.00000000
  free energy    TOTEN  =       269.96238817 eV

  energy without entropy =      269.96131807  energy(sigma->0) =      269.96212064

[...]

 eigenvalue-minimisations  :  3232
 total energy-change (2. order) :-0.2826565E+03  ( 0.1438496E+03)
 number of electron      26.0000000 magnetization       2.0000000
 augmentation part       26.0000000 magnetization       2.0000000

[...]

 eigenvalue-minimisations  :  5240
 total energy-change (2. order) :-0.8222876E+04  (-0.7855401E+04)
 number of electron      26.0000000 magnetization       2.0000000
 augmentation part       26.0000000 magnetization       2.0000000

[...]

 Broyden mixing:
  rms(total) = 0.62945E+01    rms(broyden)= 0.62945E+01
  rms(prec ) = 0.64334E+01
  weight for this iteration     100.00

[...]

 eigenvalue-minimisations  :  2991
 total energy-change (2. order) : 0.1251883E+04  ( 0.3143050E+03)
 number of electron      25.9999980 magnetization       0.2721785
 augmentation part        2.5067090 magnetization       0.1683837

[...]

 eigenvalues of (default mixing * dielectric matrix)
  average eigenvalue GAMMA=   0.4201
  0.4201

[...]

WARNING in EDDRMM: call to ZHEGV failed, returncode =   8  4  3

[...]

 eigenvalue-minimisations  :  3074
 total energy-change (2. order) : 0.6861972E-04  (-0.2409741E-05)
 number of electron      25.9999981 magnetization       0.0078959
 augmentation part        2.4347682 magnetization       0.1083124

[...]

 eigenvalue-minimisations  :  3266
 total energy-change (2. order) :-0.3032667E-01  (-0.7705095E-01)
 number of electron      25.9999981 magnetization      -0.0102683
 augmentation part        2.4387314 magnetization       0.0060187

[...]

WARNING in EDDRMM: call to ZHEGV failed, returncode =   6  3  3

[...]

 eigenvalue-minimisations  :  1225
 total energy-change (2. order) : 0.4294143E-06  ( 0.1381312E-02)
 number of electron      25.9999981 magnetization      -0.0089966
 augmentation part        2.4299242 magnetization      -0.0039705

[...]

 Broyden mixing:
  rms(total) = 0.49995E-02    rms(broyden)= 0.49995E-02
  rms(prec ) = 0.57178E-02
  weight for this iteration     100.00

 eigenvalues of (default mixing * dielectric matrix)
  average eigenvalue GAMMA=   1.7963
 20.6037  9.5830  4.0718  4.0718  3.1414  3.1414  2.8038  2.8038  2.5547  2.5547
  1.7922  1.7922  0.9176  0.9176  1.4123  1.4123  0.1260  0.5618  0.5618  1.0033
  1.0033  0.0056  0.9548  0.9548  0.0904  0.1430  0.2293  0.2706  0.2706  0.6727
  0.6727  0.8170  0.8170  0.5487  0.5487  0.4793  0.5182  0.5182  0.6172  0.6172
  0.5870  0.6302  0.6302  0.6156

[...]

----------------------------------------- Iteration    1(  60)  ---------------------------------------

 eigenvalue-minimisations  :  1366
 total energy-change (2. order) :-0.3719173E-05  ( 0.1347179E-02)
 number of electron      25.9999981 magnetization      -0.0062059
 augmentation part        2.4298747 magnetization      -0.0027357

 Free energy of the ion-electron system (eV)
  alpha Z        PSCENC =       165.90714528
  Ewald energy   TEWEN  =     -2683.72959800
  -Hartree energ DENC   =      -464.04456123
  -exchange      EXHF   =         0.00000000
  -V(xc)+E(xc)   XCENC  =       112.31289052
  PAW double counting   =      2986.61580588    -2941.88717128
  entropy T*S    EENTRO =        -0.00181203
  eigenvalues    EBANDS =      -305.95875861
  atomic energy  EATOM  =      3110.36007685
  Solvation  Ediel_sol  =         0.00000000
  free energy    TOTEN  =       -20.42598261 eV

  energy without entropy =      -20.42417058  energy(sigma->0) =      -20.42552961

 average (electrostatic) potential at core
  the test charge radii are     1.0703
  (the norm of the test charge is              1.0000)
       1 -76.7491       2 -76.7491

 E-fermi :  11.1643     XC(G=0): -12.5147     alpha+bet :-19.3047

 spin component 1

 k-point     1 :       0.0500    0.0500    0.0500
  band No.  band energies     occupation
      1     -43.1572      1.00000
      2     -42.7517      1.00000
      3     -19.3973      1.00000
      4     -19.3973      1.00000
      5     -19.3495      1.00000
      6     -18.5174      1.00000
      7     -18.4644      1.00000
      8     -18.4644      1.00000
      9       5.4259      1.00000
     10       7.5849      1.00000
     11       7.5849      1.00000
     12      11.4993     -0.00098
     13      11.5054      0.00018
     14      11.7492      0.00042
     15      14.4152      0.00000
     16      14.4157      0.00000
     17      15.9507      0.00000
     18      16.6319      0.00000
     19      16.7266      0.00000
     20      64.1996      0.00000

[...]

 spin component 2

[...]

 k-point    35 :       0.4500    0.4500    0.4500
  band No.  band energies     occupation
      1     -42.9019      1.00000
      2     -42.9003      1.00000
      3     -19.3509      1.00000
      4     -19.2531      1.00000
      5     -19.2531      1.00000
      6     -19.0427      1.00000
      7     -19.0427      1.00000
      8     -18.9407      1.00000
      9       9.5921      1.00000
     10       9.8917      1.00000
     11       9.8917      1.00000
     12      10.3317      1.00000
     13      10.3317      1.00000
     14      10.4291      0.99999
     15      15.2920      0.00000
     16      15.2920      0.00000
     17      15.2955      0.00000
     18      15.2955      0.00000
     19      20.8616      0.00000
     20      21.6845      0.00000

 soft charge-density along one line, spin component           1
         0         1         2         3         4         5         6         7         8         9
 total charge-density along one line

 soft charge-density along one line, spin component           2
         0         1         2         3         4         5         6         7         8         9
 total charge-density along one line

------------------------ aborting loop because EDIFF is reached ----------------------------------------

  FORCE on cell =-STRESS in cart. coord.  units (eV):
  Direction    XX          YY          ZZ          XY          YZ          ZX
  Alpha Z   165.90715   165.90715   165.90715
  Ewald    -894.57647  -894.57647  -894.57647     0.00000    -0.00000    -0.00000
  Hartree   154.65560   154.65560   154.65560    -0.00000    -0.00000    -0.00000
  E(xc)    -118.57627  -118.57627  -118.57627    -0.00000    -0.00000     0.00000
  Local     173.68965   173.68965   173.68965    -0.00000     0.00000     0.00000
  n-local    -4.91672   -27.55505   -41.96875     1.46076    -0.40807    -0.27915
  augment    36.44498    36.44498    36.44498    -0.00000    -0.00000    -0.00000
  Kinetic   471.54186   506.50567   544.78919     2.24105    -2.79253     1.34321
  Fock        0.00000     0.00000     0.00000     0.00000     0.00000     0.00000
  Total       0.34337     0.34337     0.34337    -0.00000    -0.00000    -0.00000
  in kB      15.30839    15.30839    15.30839    -0.00000    -0.00000    -0.00000

 VOLUME and BASIS-vectors are now :
  energy-cutoff  :      450.00
  volume of cell :       35.94
      direct lattice vectors                 reciprocal lattice vectors
     3.300000000  0.000000000  0.000000000     0.303030303  0.000000000  0.000000000
     0.000000000  3.300000000  0.000000000     0.000000000  0.303030303  0.000000000
     0.000000000  0.000000000  3.300000000     0.000000000  0.000000000  0.303030303

  length of vectors
     3.300000000  3.300000000  3.300000000     0.303030303  0.303030303  0.303030303

 FORCES acting on ions
    electron-ion (+dipol)            ewald-force                    non-local-force                 convergence-correction
   -.428E-14 0.282E-14 -.228E-13   -.503E-14 -.870E-14 -.268E-14   0.000E+00 0.000E+00 0.000E+00   0.840E-14 -.161E-13 -.591E-14
   0.191E-12 -.152E-11 -.825E-13   0.838E-14 0.851E-14 -.679E-15   0.000E+00 0.000E+00 0.000E+00   -.214E-13 0.266E-13 0.212E-13
   0.187E-12 -.151E-11 -.105E-12   0.335E-14 -.192E-15 -.336E-14   0.000E+00 0.000E+00 0.000E+00   -.130E-13 0.105E-13 0.153E-13

 POSITION                                       TOTAL-FORCE (eV/Angst)
      0.00000      0.00000      0.00000        -0.000000     -0.000000     -0.000000
      1.65000      1.65000      1.65000         0.000000      0.000000      0.000000
    total drift:                                0.000000     -0.000000     -0.000000

  FREE ENERGIE OF THE ION-ELECTRON SYSTEM (eV)
  free  energy   TOTEN  =       -20.42598261 eV

  energy  without entropy=      -20.42417058  energy(sigma->0) =      -20.42552961

 reached required accuracy - stopping structural energy minimisation