 vasp.5.4.1 05Feb16 (build Mar 19 2020 08:54:17) complex

 executed on           IFC91_ompi date 2021.12.14  19:06:58

 INCAR:
 POTCAR:   PAW_PBE Ni 06Sep2000
 POTCAR:    PAW_PBE Nb_sv 25May2007
 POTCAR:    PAW_PBE W 08Apr2002
 POTCAR:    PAW_PBE Cl 17Jan2003

 POTCAR:   PAW_PBE Ni 06Sep2000
   VRHFIN =Ni:

   TITEL  = PAW_PBE Ni 06Sep2000
   POMASS =   58.690; ZVAL   =   10.000    mass and valenz
   ENMAX  =  269.533; ENMIN  =  202.150 eV
   QCUT   =   -4.451; QGAM   =    8.902    optimization parameters

   Description
     l     E      TYP  RCUT    TYP  RCUT
     2   .000     23  2.300
     2   .000     23  2.300
     0   .000     23  2.300
     0   .000     23  2.300
     1  -.200     23  2.300
     1   .000     23  2.300
     3   .000      7   .000

 POTCAR:    PAW_PBE Nb_sv 25May2007
   VRHFIN =Nb: 4p5s4d

   TITEL  = PAW_PBE Nb_sv 25May2007
   POMASS =   92.910; ZVAL   =   13.000    mass and valenz
   ENMAX  =  293.235; ENMIN  =  219.927 eV

 POTCAR:    PAW_PBE W 08Apr2002
   VRHFIN =W : 6s5d

   TITEL  = PAW_PBE W 08Apr2002
   POMASS =  183.850; ZVAL   =    6.000    mass and valenz
   ENMAX  =  223.057; ENMIN  =  167.293 eV

 POTCAR:    PAW_PBE Cl 17Jan2003
   VRHFIN =Cl: s2p5

   TITEL  = PAW_PBE Cl 17Jan2003
   POMASS =   35.453; ZVAL   =    7.000    mass and valenz
   ENMAX  =  280.000; ENMIN  =  196.854 eV
   QCUT   =   -4.392; QGAM   =    8.784    optimization parameters

   Description
     l     E      TYP  RCUT    TYP  RCUT
     0   .000     23  1.900
     0   .000     23  1.900
     1   .000     23  1.900
     1   .000     23  1.900
     2   .000     23  1.900

 Optimization of the real space projectors (new method)

 maximal supplied QI-value         = 16.25
 optimisation between [QCUT,QGAM] = [ 12.51, 25.03] = [ 43.85,175.40] Ry
 Optimized for a Real-space Cutoff    1.31 Angstroem

   l    n(q)    QCUT    max X(q) W(low)/X(q) W(high)/X(q)  e(spline)
   2      9    12.514     4.811    0.56E-04    0.27E-04    0.54E-07
   2      9    12.514    15.146    0.50E-03    0.83E-03    0.65E-06
   0     10    12.514    14.357    0.12E-04    0.16E-04    0.90E-08
   0     10    12.514    43.282    0.85E-04    0.27E-03    0.25E-06
   1      9    12.514     5.514    0.64E-04    0.11E-04    0.56E-07
   1      9    12.514     7.697    0.40E-03    0.73E-04    0.27E-06
 Optimization of the real space projectors (new method)

[...]

   l    n(q)    QCUT    max X(q) W(low)/X(q) W(high)/X(q)  e(spline)
   2     11    12.518   130.855    0.35E-03    0.25E-03    0.12E-05
   2     11    12.518   114.007    0.35E-03    0.25E-03    0.12E-05
   0     12    12.518    84.709    0.29E-04    0.97E-05    0.60E-06
   0     12    12.518    49.163    0.27E-04    0.89E-05    0.55E-06
   1     11    12.518    15.765    0.74E-04    0.89E-04    0.15E-06
   1     11    12.518    10.638    0.55E-04    0.69E-04    0.13E-06
 Optimization of the real space projectors (new method)

 maximal supplied QI-value         = 19.84
 optimisation between [QCUT,QGAM] = [ 12.50, 25.00] = [ 43.76,175.03] Ry
 Optimized for a Real-space Cutoff    1.06 Angstroem

   l    n(q)    QCUT    max X(q) W(low)/X(q) W(high)/X(q)  e(spline)
   0      8    12.501     4.846    0.94E-05    0.20E-04    0.50E-08
   0      8    12.501    64.115    0.24E-03    0.14E-03    0.88E-07
   1      7    12.501     3.092    0.55E-04    0.16E-04    0.17E-07
   1      7    12.501    37.586    0.48E-03    0.61E-03    0.91E-07
 PAW_PBE Ni 06Sep2000                   :
  PAW_PBE Nb_sv 25May2007               :
  PAW_PBE W 08Apr2002                   :
  PAW_PBE Cl 17Jan2003                  :

 POSCAR: Ni Nb  W
  positions in direct lattice
  velocities in cartesian coordinates
 exchange correlation table for  LEXCH =        8
   RHO(1)=    0.500       N(1)  =     2000
   RHO(2)=  100.500       N(2)  =     4000

 ion  position               nearest neighbor table
   1  0.017  0.480  0.240-   6 2.46  31 2.47  44 2.50  16 2.52  68 2.52  35 2.53  69 2.57  10 2.57
                            60 2.65
   2  0.188  0.971  0.247-  64 2.48  24 2.53  65 2.53   3 2.55  13 2.59  66 2.59  14 2.68  56 2.71

   3  0.016  0.029  0.176-  14 2.52   4 2.53  62 2.55   2 2.55   5 2.57  64 2.57  49 2.58  72 2.58
                            13 2.59  38 2.59  21 2.64  56 2.66
   4  0.176  0.196  0.175-  10 2.50  13 2.51   3 2.53  61 2.53  31 2.54  72 2.57  49 2.59  42 2.62
                             8 2.67   7 2.67  56 2.75
   5  0.180  0.976  0.103-  72 2.48  30 2.51  29 2.52  42 2.52  18 2.53  13 2.53  50 2.54   3 2.57
                            47 2.57  21 2.57  64 2.59  48 2.62
   6  0.869  0.315  0.238-  10 2.41  54 2.42  31 2.45   1 2.46  49 2.47  51 2.49  56 2.51  16 2.60
                            39 2.77
   7  0.182  0.309  0.097-  22 2.49  10 2.50  70 2.50  37 2.52  45 2.53  28 2.56  20 2.56  61 2.57
                            42 2.57  72 2.61  12 2.62   4 2.67
   8  0.520  0.198  0.173-  61 2.44  51 2.51  39 2.51  49 2.52  38 2.52  13 2.53  12 2.56  42 2.60
                            34 2.61   4 2.67  54 2.75
   9  0.692  0.704  0.025-  32 2.46  43 2.52  63 2.52  15 2.53  19 2.54  41 2.55  57 2.56  59 2.59
                            36 2.67
  10  0.020  0.361  0.168-   6 2.41   4 2.50   7 2.50  28 2.53  31 2.53  69 2.54  22 2.54  35 2.56
                            49 2.57  51 2.57   1 2.57  61 2.62
  11  0.681  0.806  0.244-  23 2.46  66 2.50  24 2.51  44 2.51  62 2.52  14 2.54  65 2.56  17 2.57
                            33 2.59
  12  0.518  0.300  0.097-  34 2.47  42 2.48  40 2.49  71 2.51  20 2.54  61 2.55   8 2.56  67 2.59
                            51 2.60  28 2.61  45 2.61   7 2.62
  13  0.348  0.034  0.173-  66 2.45   4 2.51  42 2.52   8 2.53   5 2.53  64 2.58   3 2.59   2 2.59
                            48 2.60  38 2.60  33 2.63
  14  0.844  0.973  0.246-  39 2.50  65 2.51  56 2.52   3 2.52  66 2.53  11 2.54  62 2.54  38 2.61
                             2 2.68
  15  0.850  0.640  0.096-  41 2.49  19 2.51  43 2.51  35 2.51   9 2.53  53 2.56  17 2.57  22 2.57
                            67 2.58  18 2.58  27 2.60  59 2.66
  16  0.693  0.482  0.239-  44 2.42  54 2.45  25 2.47  35 2.48  23 2.52   1 2.52  51 2.56   6 2.60
                            60 2.62
  17  0.688  0.695  0.170-  44 2.50  23 2.51  35 2.53  43 2.53  62 2.54  27 2.55  33 2.55  25 2.56
                            15 2.57  11 2.57  26 2.60  59 2.63
  18  0.017  0.810  0.101-  53 2.51  27 2.52  29 2.52   5 2.53  43 2.53  21 2.53  47 2.54  19 2.54
                            32 2.57  62 2.58  15 2.58  64 2.62
  19  0.019  0.702  0.028-  53 2.46  47 2.48  15 2.51  32 2.52  18 2.54   9 2.54  41 2.56  36 2.57
                            55 2.61
  20  0.357  0.358  0.025-  45 2.51  70 2.53  12 2.54  71 2.55   7 2.56  40 2.58  55 2.63  37 2.67
                            57 2.76
  21  0.849  0.975  0.100-  72 2.49  32 2.50  34 2.51  43 2.52  62 2.52  46 2.52  50 2.53  18 2.53
                            38 2.53   5 2.57  48 2.59   3 2.64
  22  0.015  0.471  0.096-   7 2.49  69 2.50  37 2.52  55 2.53  35 2.53  10 2.54  28 2.55  41 2.55
                            67 2.57  15 2.57  53 2.61  45 2.64
  23  0.520  0.644  0.241-  26 2.45  11 2.46  24 2.49  17 2.51  16 2.52  60 2.52  44 2.56  25 2.57
                            68 2.59
  24  0.359  0.807  0.248-  23 2.49  66 2.49  11 2.51   2 2.53  68 2.53  64 2.55  26 2.59  33 2.64
                            65 2.72
  25  0.523  0.527  0.169-  16 2.47  51 2.54  17 2.56  35 2.56  23 2.57  61 2.59  26 2.60  60 2.60
                            45 2.61  67 2.62  59 2.67  69 2.67
  26  0.354  0.697  0.173-  23 2.45  33 2.48  64 2.52  68 2.52  24 2.59  29 2.60  25 2.60  69 2.60
                            17 2.60  59 2.61  27 2.63  53 2.68
  27  0.016  0.693  0.171-  44 2.50  35 2.51  69 2.51  18 2.52  17 2.55  53 2.56  68 2.57  64 2.59
                            15 2.60  26 2.63  62 2.66  65 2.71
  28  0.853  0.302  0.098-  72 2.50  34 2.51  10 2.53  71 2.53  52 2.53  49 2.54  37 2.54  51 2.55
                            22 2.55   7 2.56  67 2.57  12 2.61
  29  0.341  0.810  0.099-  47 2.43  63 2.47  59 2.48  53 2.51   5 2.52  18 2.52  33 2.54  48 2.57
                            26 2.60  36 2.60  64 2.62  43 2.73
  30  0.342  0.025  0.031-  47 2.45  48 2.49  50 2.50  40 2.51   5 2.51  63 2.51  42 2.51  70 2.52
                            46 2.64
  31  0.183  0.320  0.242-   6 2.45   1 2.47  60 2.48  61 2.51  10 2.53   4 2.54  56 2.78  54 2.95

  32  0.849  0.866  0.029-   9 2.46  43 2.46  46 2.48  50 2.49  21 2.50  19 2.52  63 2.56  18 2.57
                            47 2.62
  33  0.515  0.860  0.170-  66 2.45  26 2.48  48 2.52  62 2.52  29 2.54  64 2.55  17 2.55  43 2.57
                            11 2.59  38 2.61  13 2.63  24 2.64
  34  0.684  0.139  0.099-  12 2.47  40 2.49  46 2.51  28 2.51  21 2.51  38 2.51  48 2.51  52 2.54
                            49 2.55  72 2.58   8 2.61  42 2.62
  35  0.852  0.529  0.167-  16 2.48  27 2.51  15 2.51   1 2.53  17 2.53  22 2.53  69 2.55  51 2.55
                            10 2.56  25 2.56  67 2.59  44 2.60
  36  0.348  0.701  0.023-  47 2.49  59 2.52  63 2.56  19 2.57  53 2.60  29 2.60  55 2.64  57 2.65
                             9 2.67
  37  0.015  0.357  0.025-  22 2.52   7 2.52  70 2.53  28 2.54  52 2.54  71 2.57  55 2.58  41 2.66
                            20 2.67
  38  0.683  0.032  0.171-  66 2.46  39 2.49  49 2.49  62 2.50  34 2.51   8 2.52  48 2.53  21 2.53
                             3 2.59  13 2.60  14 2.61  33 2.61
  39  0.680  0.136  0.244-  56 2.47  38 2.49  14 2.50   8 2.51  66 2.52  54 2.54  49 2.55   6 2.77

  40  0.516  0.186  0.028-  46 2.46  34 2.49  12 2.49  30 2.51  71 2.52  42 2.53  70 2.55  20 2.58
                            52 2.65
  41  0.852  0.535  0.024-  15 2.49  57 2.50  55 2.52  67 2.54   9 2.55  22 2.55  19 2.56  37 2.66
                            71 2.76
  42  0.348  0.140  0.100-  12 2.48  30 2.51  70 2.52  13 2.52   5 2.52  40 2.53  48 2.53   7 2.57
                            72 2.59   8 2.60   4 2.62  34 2.62
  43  0.692  0.807  0.098-  63 2.45  32 2.46  15 2.51   9 2.52  21 2.52  18 2.53  59 2.53  17 2.53
                            62 2.53  33 2.57  48 2.60  29 2.73
  44  0.849  0.642  0.241-  16 2.42  27 2.50  17 2.50   1 2.50  11 2.51  65 2.54  23 2.56  35 2.60
                            68 2.63
  45  0.354  0.473  0.095-  20 2.51   7 2.53  69 2.54  55 2.56  67 2.58  59 2.60  25 2.61  12 2.61
                            53 2.63  22 2.64  61 2.65  57 2.97
  46  0.681  0.026  0.029-  63 2.45  40 2.46  32 2.48  34 2.51  48 2.51  52 2.52  21 2.52  30 2.64
                            50 2.64
  47  0.185  0.863  0.030-  29 2.43  30 2.45  19 2.48  50 2.48  36 2.49  18 2.54   5 2.57  63 2.61
                            32 2.62
  48  0.516  0.976  0.100-  63 2.43  30 2.49  46 2.51  34 2.51  33 2.52  42 2.53  38 2.53  29 2.57
                            21 2.59  13 2.60  43 2.60   5 2.62
  49  0.844  0.196  0.172-  51 2.47   6 2.47  38 2.49   8 2.52  28 2.54  72 2.54  34 2.55  39 2.55
                            10 2.57   3 2.58   4 2.59  56 2.71
  50  0.021  0.025  0.029-  47 2.48  52 2.49  32 2.49  30 2.50  21 2.53   5 2.54  72 2.55  70 2.57
[...]

 VOLUME and BASIS-vectors are now :
  energy-cutoff  :      600.00
  volume of cell :     2938.87
      direct lattice vectors                 reciprocal lattice vectors
     7.778498173  0.000000000  0.000000000     0.128559521  0.000000000  0.000000000
     0.000000000 13.137704849  0.000000000     0.000000000  0.076116796  0.000000000
     0.000000000  0.000000000 28.758470535     0.000000000  0.000000000  0.034772364

  length of vectors
     7.778498173 13.137704849 28.758470535     0.128559521  0.076116796  0.034772364

 FORCES acting on ions
    electron-ion (+dipol)            ewald-force                    non-local-force                 convergence-correction
   -.207E+03 -.155E+03 -.300E+04   0.207E+03 0.156E+03 0.300E+04   -.160E-01 -.367E+00 -.751E+00   -.248E-01 -.735E-01 -.155E+00
   -.954E+02 0.532E+02 -.305E+04   0.958E+02 -.530E+02 0.305E+04   -.402E+00 0.498E+00 -.814E+00   0.310E-01 0.301E-01 0.339E-01
   -.706E+02 0.116E+03 -.115E+04   0.715E+02 -.115E+03 0.115E+04   -.832E+00 -.137E+01 -.335E+00   0.905E-02 0.114E+00 -.101E+00
   -.140E+03 0.579E+01 -.117E+04   0.139E+03 -.672E+01 0.117E+04   0.507E+00 0.361E+00 -.858E+00   -.388E-01 0.247E+00 -.390E-01
   0.329E+02 -.447E+02 0.832E+03   -.325E+02 0.439E+02 -.833E+03   -.466E+00 0.736E+00 0.453E+00   0.414E-01 0.293E-01 -.120E+00
   -.545E+02 -.742E+02 -.296E+04   0.556E+02 0.750E+02 0.296E+04   -.117E+01 -.104E+01 0.744E-01   0.857E-01 0.169E+00 -.132E+00
   -.424E+02 0.858E+02 0.105E+04   0.422E+02 -.859E+02 -.105E+04   0.174E+00 -.338E-01 0.180E+00   0.560E-01 0.118E+00 0.713E-01
   0.197E+03 -.227E+02 -.119E+04   -.196E+03 0.211E+02 0.119E+04   -.371E+00 0.140E+01 -.365E+00   0.114E-01 0.225E+00 -.117E+00
   0.224E+02 -.923E+02 0.323E+04   -.216E+02 0.930E+02 -.323E+04   -.826E+00 -.582E+00 0.114E+00   0.274E-01 -.604E-01 0.270E-01
   -.166E+03 -.771E+02 -.924E+03   0.166E+03 0.766E+02 0.924E+03   0.306E+00 0.359E+00 0.435E+00   -.326E-01 0.113E+00 0.475E-01
   -.706E+02 -.476E+02 -.310E+04   0.705E+02 0.473E+02 0.310E+04   -.589E-02 0.577E+00 -.660E+00   -.223E-02 -.118E+00 -.632E-02
   0.144E+02 -.116E+03 0.107E+04   -.143E+02 0.116E+03 -.107E+04   -.578E-01 0.393E+00 0.320E-01   0.447E-02 0.116E+00 0.134E-01
   0.332E+02 -.326E+01 -.127E+04   -.335E+02 0.426E+01 0.127E+04   0.359E+00 -.109E+01 0.865E+00   -.394E-02 0.862E-01 -.984E-01
   0.120E+02 0.207E+03 -.307E+04   -.126E+02 -.207E+03 0.307E+04   0.609E+00 0.278E-01 -.125E+01   -.434E-02 0.433E-01 0.296E-01
   0.864E+01 0.676E+02 0.103E+04   -.838E+01 -.673E+02 -.103E+04   -.218E+00 -.881E-01 -.168E+00   -.313E-01 -.109E+00 -.181E-01
   0.866E+02 -.843E+02 -.302E+04   -.866E+02 0.854E+02 0.302E+04   -.114E+00 -.119E+01 -.198E+00   0.106E+00 -.491E-01 -.151E+00
   -.437E+02 -.527E+02 -.107E+04   0.437E+02 0.523E+02 0.107E+04   -.284E-01 0.578E+00 0.642E-01   0.582E-01 -.216E+00 -.131E+00
   -.112E+02 -.694E+02 0.781E+03   0.112E+02 0.695E+02 -.781E+03   0.143E-01 -.181E-01 0.465E+00   -.419E-01 -.135E+00 -.996E-01
   0.122E+02 -.531E+02 0.317E+04   -.121E+02 0.537E+02 -.317E+04   -.233E-01 -.524E+00 -.497E+00   -.627E-01 -.784E-01 -.674E-02
   -.455E+02 0.131E+03 0.316E+04   0.458E+02 -.130E+03 -.316E+04   -.329E+00 -.947E+00 0.207E+01   0.577E-01 0.681E-01 0.724E-01
   -.612E+02 -.330E+02 0.929E+03   0.608E+02 0.328E+02 -.929E+03   0.506E+00 0.172E+00 0.985E+00   -.441E-01 0.584E-02 -.131E+00
   0.271E+02 0.424E+02 0.103E+04   -.278E+02 -.427E+02 -.103E+04   0.694E+00 0.265E+00 -.258E+00   -.256E-01 0.229E-01 0.105E+00
   0.144E+03 0.678E+02 -.310E+04   -.143E+03 -.677E+02 0.310E+04   -.229E-01 -.566E-01 -.442E+00   -.481E-02 -.160E+00 -.915E-01
   0.129E+03 0.151E+02 -.316E+04   -.130E+03 -.153E+02 0.316E+04   0.743E+00 0.315E+00 -.704E+00   -.185E-01 -.965E-01 0.415E-02
   0.176E+03 0.107E+03 -.102E+04   -.176E+03 -.106E+03 0.102E+04   -.227E+00 -.489E+00 -.741E-01   0.267E-01 -.107E+00 -.955E-01
   0.166E+03 0.479E+02 -.123E+04   -.165E+03 -.480E+02 0.123E+04   -.609E+00 0.202E+00 0.405E+00   -.343E-01 -.181E+00 -.104E+00
   -.115E+03 -.871E+02 -.122E+04   0.114E+03 0.881E+02 0.122E+04   0.123E+01 -.701E+00 0.822E+00   -.254E-01 -.254E+00 -.503E-01
   0.183E+02 -.156E+02 0.115E+04   -.182E+02 0.156E+02 -.115E+04   -.124E+00 -.179E+00 -.124E+01   -.592E-01 0.870E-01 0.659E-01
   0.154E+02 -.868E+02 0.955E+03   -.168E+02 0.884E+02 -.955E+03   0.135E+01 -.139E+01 -.777E+00   0.573E-01 -.994E-01 -.944E-01
   0.674E+01 -.529E+02 0.314E+04   -.652E+01 0.529E+02 -.314E+04   -.249E+00 0.320E-01 0.692E+00   0.219E-01 -.300E-02 -.514E-02
   -.220E+03 -.359E+02 -.295E+04   0.220E+03 0.347E+02 0.296E+04   -.177E+00 0.524E+00 -.142E+00   -.822E-01 0.146E+00 -.107E+00
   0.301E+02 -.704E+02 0.317E+04   -.304E+02 0.707E+02 -.317E+04   0.320E+00 -.183E+00 -.947E+00   -.477E-01 -.936E-01 -.381E-01
   0.377E+02 -.516E+02 -.110E+04   -.379E+02 0.511E+02 0.110E+04   0.288E+00 0.596E+00 0.151E+01   -.887E-02 -.112E+00 -.134E+00
   -.434E+02 -.354E+02 0.107E+04   0.431E+02 0.348E+02 -.107E+04   0.331E+00 0.528E+00 -.184E-01   -.247E-01 0.150E+00 -.648E-01
   -.565E+02 0.221E+01 -.906E+03   0.565E+02 -.219E+01 0.906E+03   0.626E-01 0.820E-01 -.295E+00   0.331E-01 -.939E-01 -.502E-02
   -.271E+02 -.114E+03 0.327E+04   0.263E+02 0.114E+03 -.328E+04   0.815E+00 -.104E+00 0.161E+01   0.331E-01 -.640E-01 0.322E-02
   0.551E+02 0.142E+03 0.320E+04   -.550E+02 -.143E+03 -.320E+04   -.157E+00 0.811E+00 0.917E+00   -.197E-01 0.473E-01 0.156E-01
   0.290E+02 0.980E+02 -.109E+04   -.295E+02 -.966E+02 0.109E+04   0.337E+00 -.145E+01 0.131E+01   -.399E-02 0.101E+00 -.126E+00
   0.242E+03 0.967E+02 -.304E+04   -.243E+03 -.980E+02 0.304E+04   0.308E+00 0.136E+01 -.157E+01   0.742E-02 0.178E+00 -.771E-02
   0.365E+02 -.578E+02 0.319E+04   -.366E+02 0.575E+02 -.319E+04   0.447E-01 0.171E+00 -.738E+00   0.137E-01 0.949E-01 0.607E-01
   0.550E+02 0.150E+03 0.315E+04   -.549E+02 -.151E+03 -.315E+04   -.793E-01 0.764E+00 0.619E+00   -.453E-01 0.331E-01 0.282E-01
   0.111E+03 -.601E+02 0.996E+03   -.110E+03 0.598E+02 -.995E+03   -.546E+00 0.183E+00 -.620E+00   0.504E-01 0.125E+00 -.668E-01
   0.117E+01 -.838E+02 0.983E+03   -.268E-01 0.842E+02 -.982E+03   -.114E+01 -.308E+00 -.805E+00   -.152E-01 -.123E+00 -.138E+00
   -.152E+03 -.932E+02 -.311E+04   0.152E+03 0.938E+02 0.311E+04   -.274E+00 -.401E+00 -.492E+00   0.718E-01 -.214E+00 -.114E+00
   -.776E+02 0.863E+02 0.988E+03   0.778E+02 -.867E+02 -.989E+03   -.193E+00 0.444E+00 0.511E+00   0.485E-01 -.431E-01 0.362E-01
   0.200E+02 0.108E+01 0.320E+04   -.200E+02 -.422E+00 -.320E+04   0.973E-03 -.622E+00 -.979E+00   -.555E-02 -.677E-02 0.892E-03
   -.459E+02 -.793E+02 0.315E+04   0.461E+02 0.792E+02 -.314E+04   -.229E+00 0.786E-01 -.708E+00   0.184E-01 -.487E-01 -.443E-01
   0.287E+02 0.176E+02 0.994E+03   -.287E+02 -.164E+02 -.993E+03   0.279E-01 -.117E+01 -.113E+01   -.494E-04 0.159E-02 -.145E+00
   -.592E+02 0.439E+02 -.954E+03   0.592E+02 -.440E+02 0.955E+03   0.212E-01 -.272E+00 -.542E+00   0.256E-01 0.253E+00 -.595E-01
   -.311E+02 -.132E+03 0.312E+04   0.310E+02 0.132E+03 -.312E+04   0.267E-01 -.951E-01 0.426E-01   -.840E-02 0.896E-02 -.300E-01
   0.139E+03 -.765E+02 -.889E+03   -.139E+03 0.764E+02 0.889E+03   -.296E+00 0.326E-02 0.883E-01   0.621E-01 0.108E+00 -.646E-01
   -.623E+02 -.397E+02 0.317E+04   0.633E+02 0.387E+02 -.317E+04   -.970E+00 0.901E+00 -.650E+00   -.346E-01 0.658E-01 0.873E-02
   -.199E+01 0.470E+02 0.922E+03   0.105E+01 -.463E+02 -.923E+03   0.929E+00 -.514E+00 0.850E+00   0.976E-03 -.121E+00 0.226E-02
   0.318E+03 -.216E+02 -.410E+04   -.317E+03 0.222E+02 0.409E+04   -.145E+01 -.163E+01 0.529E+01   0.268E-01 0.143E+00 -.101E+00
   -.192E+02 0.905E+02 0.415E+04   0.193E+02 -.906E+02 -.415E+04   -.199E+00 0.653E-01 -.468E+01   0.214E-01 -.151E-03 0.396E-01
   -.243E+03 0.399E+02 -.413E+04   0.241E+03 -.403E+02 0.412E+04   0.225E+01 0.308E+00 0.529E+01   0.144E-01 0.272E+00 -.142E-01
   -.327E+02 0.186E+03 0.444E+04   0.333E+02 -.187E+03 -.444E+04   -.711E+00 0.309E+00 -.652E+01   0.396E-01 -.179E-01 0.568E-01
   -.108E+03 0.224E+02 -.407E+04   0.104E+03 -.223E+02 0.407E+04   0.245E+01 -.194E+00 -.814E+00   -.178E-01 0.694E-01 -.445E-02
   -.192E+02 0.147E+03 0.138E+04   0.193E+02 -.147E+03 -.138E+04   -.139E+00 0.177E+00 0.750E+00   0.381E-01 -.132E+00 -.499E-01
   0.628E+02 -.495E+02 -.182E+04   -.628E+02 0.494E+02 0.181E+04   -.668E-01 0.211E+00 0.338E+01   -.428E-01 -.405E-01 -.614E-01
   0.187E+02 -.596E+02 -.643E+03   -.188E+02 0.599E+02 0.644E+03   0.191E-01 -.257E+00 -.942E+00   -.173E-01 0.620E-01 -.432E-01
   -.824E+02 0.211E+02 -.707E+03   0.832E+02 -.213E+02 0.708E+03   -.751E+00 0.153E+00 -.260E+00   -.363E-02 -.730E-01 -.730E-01
   0.131E+02 -.344E+02 0.187E+04   -.129E+02 0.345E+02 -.187E+04   -.281E+00 -.478E-01 -.278E+01   0.198E-01 -.374E-01 -.740E-02
   0.581E+02 0.216E+02 -.776E+03   -.590E+02 -.215E+02 0.777E+03   0.861E+00 0.314E-01 -.473E+00   0.872E-02 -.716E-01 -.508E-01
   -.447E+02 0.493E+02 -.187E+04   0.446E+02 -.491E+02 0.187E+04   0.205E-01 0.518E-01 0.375E+01   0.104E-01 -.103E+00 -.132E-02
   0.622E+02 -.299E+02 -.179E+04   -.615E+02 0.293E+02 0.179E+04   -.108E+01 0.113E+01 0.270E+01   -.166E-01 0.927E-02 0.246E-01
   0.331E+02 0.549E+02 0.714E+03   -.333E+02 -.549E+02 -.715E+03   0.308E+00 -.207E-01 0.934E+00   -.155E-01 -.250E-02 0.252E-01
   0.693E+01 0.123E+02 -.186E+04   -.713E+01 -.122E+02 0.185E+04   0.265E+00 -.128E+00 0.253E+01   -.393E-01 -.103E+00 -.508E-01
   -.738E+02 0.189E+02 -.631E+03   0.740E+02 -.190E+02 0.631E+03   -.187E+00 0.192E+00 -.572E+00   -.327E-01 -.609E-01 -.866E-02
   0.236E+02 0.159E+02 0.188E+04   -.238E+02 -.156E+02 -.188E+04   0.172E+00 -.365E+00 -.341E+01   0.101E-01 0.353E-01 -.259E-02
   -.734E+01 0.370E+01 0.188E+04   0.688E+01 -.353E+01 -.188E+04   0.476E+00 -.147E+00 -.274E+01   -.235E-01 0.352E-01 0.334E-01
   -.425E+02 -.230E+02 0.610E+03   0.429E+02 0.231E+02 -.611E+03   -.241E+00 -.390E-01 0.649E+00   -.147E-01 0.691E-01 -.228E-01
   0.863E+02 0.428E+01 -.191E+04   -.871E+02 -.434E+01 0.191E+04   0.203E+01 0.928E-01 -.310E+01   -.139E-01 0.107E-01 -.124E-01
   -.375E+01 0.271E+01 0.745E+01   0.455E-12 -.546E-12 -.978E-11   0.360E+01 -.293E+01 -.495E+01   0.160E+00 0.190E+00 -.259E+01

 POSITION                                       TOTAL-FORCE (eV/Angst)
      0.13051      6.30989      6.88885         0.041526     -0.070684     -0.040859
      1.46393     12.75070      7.09925         0.018567      0.714306      0.406990
      0.12247      0.38151      5.06987         0.008953      0.071017      0.133704
      1.37286      2.57611      5.01877         0.172444     -0.322096      0.186890
      1.40131     12.82155      2.95491         0.001556      0.022694      0.027085
      6.75905      4.13215      6.85451        -0.026535     -0.079486      0.177333
      1.41457      4.06383      2.79719         0.042027     -0.016655     -0.047813
      4.04352      2.59747      4.98234        -0.049001     -0.024304      0.202072
      5.38075      9.24278      0.71169         0.003122     -0.010931      0.003125
      0.15415      4.74692      4.84268         0.056304     -0.010354      0.009212
      5.29800     10.58493      7.00611        -0.097608      0.160317     -0.068020
      4.02729      3.93666      2.80194         0.033008     -0.042290      0.031867
      2.70797      0.44624      4.98752         0.073978     -0.013746      0.211379
      6.56477     12.78025      7.07753         0.010470      0.091837      0.128973
      6.60979      8.41264      2.76411         0.010513      0.054008     -0.012043
      5.39292      6.33872      6.87221        -0.029879     -0.177955      0.033750
      5.35544      9.13070      4.88598        -0.011187      0.002260      0.007182
      0.13274     10.63634      2.91101         0.002667     -0.008938     -0.008844
      0.14422      9.22923      0.79266        -0.001210     -0.015632     -0.021366
      2.77871      4.70328      0.72574         0.044126     -0.003914      0.054961
      6.60748     12.80969      2.87584         0.015929      0.005936      0.010702
      0.11461      6.18628      2.75108        -0.025366      0.030781     -0.039963
      4.04810      8.46407      6.92500         0.067056     -0.060206     -0.006519
      2.78971     10.60152      7.12613         0.114460      0.036652     -0.047681
      4.06683      6.92322      4.87280         0.012786      0.000338     -0.032061
      2.75326      9.16268      4.97152         0.024131     -0.023975     -0.010285
      0.12645      9.10849      4.91216        -0.059041     -0.008331     -0.021485
      6.63818      3.96691      2.81648         0.005653     -0.038235     -0.048196
      2.65531     10.63517      2.83430         0.017715      0.021350      0.007529
      2.66192      0.32919      0.88456         0.000238      0.015114     -0.002670
      1.42715      4.21048      6.96085         0.042573     -0.527661      0.336602
      6.60150     11.37216      0.82930         0.006521      0.011967     -0.030126
      4.00385     11.29695      4.88232         0.048642      0.017395      0.099473
      5.32098      1.83034      2.83911        -0.031721      0.109573      0.042799
      6.62917      6.94935      4.80779         0.005213      0.005423     -0.014065
      2.70894      9.20606      0.66071         0.016474      0.006524     -0.023808
      0.11363      4.68562      0.72988        -0.012908     -0.014766     -0.014795
      5.31128      0.42167      4.92116        -0.088696     -0.001722      0.017743
      5.28953      1.78620      7.00835        -0.127755      0.218361      0.182365
      4.01180      2.43913      0.81050        -0.062513     -0.023839     -0.004137
      6.62988      7.02267      0.69623         0.022601     -0.022932      0.032519
      2.70372      1.84441      2.88961         0.010435     -0.002122      0.047321
      5.38517     10.60422      2.82717        -0.011178      0.036136     -0.019117
      6.60393      8.43813      6.93445         0.086394      0.043021      0.020476
      2.75075      6.21700      2.72905        -0.023589      0.015790     -0.028218
      5.29931      0.33988      0.82306        -0.003312      0.024118      0.003647
      1.44012     11.34383      0.85416        -0.006574      0.016822     -0.007442
      4.01668     12.81922      2.87630         0.027315     -0.019965      0.017262
      6.56163      2.58021      4.94083         0.078246     -0.117434      0.299576
      0.16465      0.33401      0.83661         0.002297      0.058751      0.041480
      5.35901      4.73376      4.88350        -0.030347      0.030311      0.041363
      6.65773      2.46519      0.77459         0.039326     -0.028143      0.072272
      1.38750      8.46756      2.77258        -0.009445      0.031297      0.036901
      4.36645      4.14331      7.23774        -0.860756     -0.948811     -0.020637
      1.37429      6.93127      0.68822         0.002550      0.005423     -0.017286
      7.74105      1.86410      7.27036         0.920979      0.240386     -0.762812
      4.17387      7.03491      0.25378        -0.020345     -0.039664     -0.019306
      2.66300      2.00779     10.10504        -1.252465     -0.068700     -0.083409
      3.95023      8.52327      2.74364         0.007272      0.023041     -0.012204
      2.77606      6.28953      7.04222        -0.036648      0.066237      0.158337
      2.76953      4.67868      4.88675        -0.068366      0.018539      0.030301
      6.52508     11.37964      4.95330         0.019541     -0.091846      0.032499
      4.04507     11.36964      0.92515        -0.013130      0.031834     -0.025740
      1.46113     11.32147      5.06855         0.009072      0.034170     -0.079687
      0.07502     10.63344      7.15632        -0.014686      0.151582      0.017259
      4.04172     12.73899      6.86204        -0.392447      0.462176      0.051818
      5.32598      6.17665      2.70407         0.013943     -0.004903     -0.048934
      1.45844      8.45288      7.01460         0.021541     -0.157581     -0.027361
      1.40356      6.95120      4.75147        -0.008934     -0.021432     -0.001041
      1.46838      2.54604      0.81071        -0.035843     -0.059747      0.088733
      5.32330      4.58808      0.74783        -0.004963      0.056068     -0.061487
      0.11710      1.80406      2.91887         0.058191      0.090238      0.192508
      1.29712      1.98401     12.24966         1.200092      0.047208     -1.786592
    total drift:                                0.012214     -0.033971     -0.087841

  FREE ENERGIE OF THE ION-ELECTRON SYSTEM (eV)
  free  energy   TOTEN  =      -498.69525622 eV

  energy  without entropy=     -498.69058837  energy(sigma->0) =     -498.69408926